%chk=a.chk
%nprocshared=28 
%mem=48gb 
# 6-31g(d) m062x g09default scf=(xqc,maxcycle=64) force  guess=read  td nosymm

 Title Card 

0 1
6  1.40837371  0.48873726  -0.48222227
6  1.42451641  -0.49838411  0.56297930
6  2.63487511  -0.96950820  1.02088598
6  3.84654087  -0.49341450  0.49698303
6  3.81500501  0.49033458  -0.57128099
6  2.58469829  0.96783946  -1.02182213
1  2.65042898  -1.74144835  1.78658685
1  2.55789864  1.73225353  -1.79422254
6  4.99779413  0.96744476  -1.19515998
7  5.94835585  1.36888906  -1.73142743
6  5.06875186  -0.97839860  1.02491224
7  6.06215393  -1.38710630  1.47036655
6  -0.32545721  2.24915704  -0.28202826
6  -0.87459265  0.47881088  -1.53747021
6  0.37121286  3.16976585  0.52004153
6  -1.68600114  2.44114016  -0.65749323
6  -0.83102908  -0.72461461  -2.23938931
6  -2.03941512  1.28073425  -1.46781845
6  -0.32814471  4.28845629  0.95042239
1  1.40713715  2.99347137  0.78520256
6  -2.35680865  3.56271744  -0.21363729
6  -2.00763573  -1.12521345  -2.88599581
1  0.08401609  -1.30078399  -2.30166297
6  -3.18027128  0.87696222  -2.13161544
6  -1.66901846  4.48378811  0.59250504
1  0.17072507  5.02645846  1.56952958
1  -3.39699295  3.73273416  -0.47232298
6  -3.15331533  -0.33871052  -2.84198900
1  -2.01877696  -2.06275958  -3.43180705
1  -4.08266908  1.48095040  -2.11606309
1  -2.18797163  5.37068032  0.94346028
1  -4.04435032  -0.65863656  -3.37142755
6  -0.86994371  -0.49090392  1.60823156
6  -0.30159275  -2.26110141  0.35372485
6  -0.85826141  0.69608316  2.33838735
6  -2.04174969  -1.26724825  1.46539991
6  0.39347766  -3.19390755  -0.43117119
6  -1.68064729  -2.41341284  0.65488326
6  -2.05498934  1.09607599  2.93281760
1  0.05794855  1.26398673  2.46081181
6  -3.21923349  -0.85877860  2.08759146
6  -0.32241074  -4.27751496  -0.91627108
1  1.44907374  -3.05726703  -0.64058668
6  -2.37423404  -3.51043906  0.14967720
6  -3.21873080  0.32719166  2.81922409
1  -2.07577013  2.01536590  3.51099989
1  -4.11711332  -1.46585067  2.01553632
6  -1.69168040  -4.43488413  -0.63426926
1  0.18465590  -5.02370978  -1.51937954
1  -3.43200658  -3.64105800  0.35834157
1  -4.12533373  0.64638118  3.32212856
1  -2.22071134  -5.29679500  -1.02964670
7  0.13776833  1.07818146  -0.80822671
7  0.17513990  -1.10402884  0.92496849

-c -h -mn -co -ag -ni -ni 0
def2svp
****
-n -o -f -cl 0
6-31+g(d)
****
-ce 0
sdd
****

-ce 0
sdd



