%chk=a.chk
%nprocshared=28 
%mem=48gb 
# 6-31g(d) m062x g09default scf=(xqc,maxcycle=64) force  guess=read  td nosymm

 Title Card 

0 1
6  1.40661180  0.48809306  -0.48419577
6  1.42353504  -0.49692421  0.56594161
6  2.63437102  -0.96693000  1.02130911
6  3.84650496  -0.49325774  0.49832103
6  3.81580971  0.48987255  -0.57203002
6  2.58405316  0.96426193  -1.02405445
1  2.65050987  -1.73990240  1.78574746
1  2.55848736  1.72978448  -1.79492262
6  4.99855994  0.96793997  -1.19358066
7  5.94846118  1.36957293  -1.72961331
6  5.06922194  -0.97905478  1.02412563
7  6.06259132  -1.38819471  1.47027119
6  -0.32688942  2.24851815  -0.27897844
6  -0.87367110  0.48005634  -1.54077999
6  0.37069656  3.16833699  0.52148619
6  -1.68552688  2.43984284  -0.65678177
6  -0.83105591  -0.72333103  -2.24107957
6  -2.03860027  1.28201735  -1.47035626
6  -0.32821662  4.28879721  0.94966357
1  1.40673038  2.99321196  0.78653424
6  -2.35752216  3.56337289  -0.21458688
6  -2.00698914  -1.12546529  -2.88579566
1  0.08404164  -1.30008742  -2.30195591
6  -3.18097717  0.87643657  -2.13123339
6  -1.66888453  4.48383310  0.59137035
1  0.17026591  5.02627589  1.56922501
1  -3.39788718  3.73210919  -0.47196948
6  -3.15416049  -0.33924044  -2.84173863
1  -2.01836618  -2.06200963  -3.43214070
1  -4.08371803  1.47896968  -2.11288821
1  -2.18823730  5.36932936  0.94367552
1  -4.04472051  -0.65964936  -3.37033721
6  -0.86964462  -0.49089565  1.60998763
6  -0.30249476  -2.26103773  0.35179927
6  -0.85817763  0.69507363  2.33943031
6  -2.04117935  -1.26801252  1.46704122
6  0.39258934  -3.19314116  -0.43314362
6  -1.67967755  -2.41270361  0.65415592
6  -2.05382019  1.09633369  2.93260075
1  0.05883739  1.26285186  2.46184358
6  -3.21891550  -0.85770142  2.08786369
6  -0.32282296  -4.27620151  -0.91562901
1  1.44875179  -3.05698404  -0.64168492
6  -2.37456890  -3.51022561  0.15101576
6  -3.21857202  0.32751773  2.81832575
1  -2.07475130  2.01495857  3.51066403
1  -4.11786505  -1.46378055  2.01384641
6  -1.69080398  -4.43571961  -0.63394044
1  0.18462679  -5.02310784  -1.52037068
1  -3.43216756  -3.64115351  0.35832375
1  -4.12540828  0.64810665  3.32099430
1  -2.22031591  -5.29656182  -1.02897042
7  0.13861074  1.07745362  -0.80843523
7  0.17642963  -1.10294175  0.92582209

-c -h -mn -co -ag -ni -ni 0
def2svp
****
-n -o -f -cl 0
6-31+g(d)
****
-ce 0
sdd
****

-ce 0
sdd



