%chk=a.chk
%nprocshared=28 
%mem=48gb 
# 6-31g(d) m062x g09default scf=(xqc,maxcycle=64) force  guess=read  td nosymm

 Title Card 

0 1
6  1.40568989  0.48579112  -0.48614842
6  1.42270717  -0.49468662  0.56841102
6  2.63403580  -0.96444384  1.02319448
6  3.84718153  -0.49284959  0.49939002
6  3.81493910  0.48935137  -0.57218307
6  2.58422673  0.95966215  -1.02691287
1  2.64940477  -1.73791079  1.78505012
1  2.55980847  1.72484848  -1.79756139
6  4.99852538  0.96882147  -1.19048494
7  5.94957670  1.37072578  -1.72527378
6  5.06952313  -0.98010385  1.02309935
7  6.06204398  -1.39020209  1.46920412
6  -0.32713023  2.24866208  -0.27854487
6  -0.87253141  0.48325417  -1.54537570
6  0.36961418  3.16781699  0.52204369
6  -1.68543077  2.44139813  -0.65878716
6  -0.82992935  -0.72181256  -2.24394747
6  -2.03778370  1.28377046  -1.47410813
6  -0.32837143  4.28949010  0.94760716
1  1.40481035  2.99037616  0.79209107
6  -2.35734860  3.56343058  -0.21657682
6  -2.00682870  -1.12464377  -2.88661776
1  0.08526605  -1.29761191  -2.30393597
6  -3.18215584  0.87496928  -2.12957362
6  -1.66934266  4.48377779  0.58921174
1  0.16888180  5.02714706  1.56856827
1  -3.40021494  3.72941626  -0.47048079
6  -3.15398060  -0.33969177  -2.84041747
1  -2.01876136  -2.06145424  -3.43308483
1  -4.08759337  1.47424067  -2.10501520
1  -2.18993806  5.36741135  0.94510943
1  -4.04561360  -0.66107009  -3.36847962
6  -0.86806334  -0.49347680  1.61292839
6  -0.30150186  -2.26092375  0.35207362
6  -0.85586605  0.69453519  2.34167977
6  -2.03971786  -1.26827240  1.46914888
6  0.39210439  -3.19094360  -0.43373282
6  -1.67940829  -2.41300807  0.65545351
6  -2.05254723  1.09663167  2.93216423
1  0.06113313  1.26022399  2.46416875
6  -3.21887900  -0.85606203  2.08602507
6  -0.32275177  -4.27730042  -0.91669096
1  1.44732440  -3.05389815  -0.64555014
6  -2.37333592  -3.51155846  0.15158963
6  -3.21786052  0.33049177  2.81675574
1  -2.07217038  2.01514697  3.51080351
1  -4.11837342  -1.45969865  2.00975011
6  -1.69141576  -4.43538985  -0.63153473
1  0.18360225  -5.02097392  -1.52231941
1  -3.43264122  -3.64117311  0.35739363
1  -4.12473890  0.65092940  3.31877854
1  -2.22025269  -5.29753210  -1.02745129
7  0.13845680  1.07751088  -0.81013562
7  0.17731184  -1.10442603  0.92942313

-c -h -mn -co -ag -ni -ni 0
def2svp
****
-n -o -f -cl 0
6-31+g(d)
****
-ce 0
sdd
****

-ce 0
sdd



