%chk=b.chk
%nprocshared=28 
%mem=48gb 
# 6-31g(d) m062x g09default scf=(xqc,maxcycle=64) force  guess=read   nosymm

 Title Card 

0 3
6  1.40490504  0.48996123  -0.48550250
6  1.42296982  -0.49667692  0.56561708
6  2.63394792  -0.96785600  1.02259627
6  3.84680287  -0.49378228  0.50155609
6  3.81628265  0.48965444  -0.57587093
6  2.58338336  0.96506372  -1.02395213
1  2.65196790  -1.73855959  1.78756687
1  2.55745150  1.72771906  -1.79725840
6  5.00006827  0.96713944  -1.19420665
7  5.95022738  1.37222245  -1.72871257
6  5.06978354  -0.98020618  1.02567988
7  6.06405799  -1.38940109  1.46980430
6  -0.32761326  2.24925370  -0.27623637
6  -0.87447471  0.47838871  -1.53997992
6  0.36825819  3.16537248  0.52542600
6  -1.68526626  2.43660484  -0.65168654
6  -0.83134556  -0.72257449  -2.24483770
6  -2.03694446  1.28183740  -1.47117939
6  -0.32952999  4.28708983  0.95074353
1  1.40792462  2.99504969  0.78397518
6  -2.35745662  3.56294954  -0.21208771
6  -2.00673615  -1.12526589  -2.88586462
1  0.08288829  -1.30091405  -2.30154944
6  -3.18034443  0.87558311  -2.13344409
6  -1.66985552  4.48290749  0.59054386
1  0.17063929  5.02491211  1.56873105
1  -3.39701099  3.73408106  -0.47372013
6  -3.15558198  -0.33912543  -2.84037265
1  -2.01577768  -2.06178609  -3.43270123
1  -4.08307508  1.47859086  -2.11220711
1  -2.18751304  5.36921757  0.94219232
1  -4.04621043  -0.66251774  -3.36844977
6  -0.87156398  -0.48931907  1.60796185
6  -0.30217601  -2.26048261  0.34965134
6  -0.85758443  0.69476931  2.34175365
6  -2.04180300  -1.26804080  1.46838256
6  0.39217152  -3.19005986  -0.43618065
6  -1.67969316  -2.41148846  0.65166879
6  -2.05428453  1.09581249  2.93425660
1  0.05882865  1.26188888  2.46298455
6  -3.21809965  -0.85994887  2.08940910
6  -0.32315687  -4.27595574  -0.91781039
1  1.44968303  -3.05968963  -0.64130445
6  -2.37417433  -3.50917469  0.15097184
6  -3.21784388  0.32816260  2.81939930
1  -2.07446839  2.01536233  3.51012538
1  -4.11961818  -1.46126920  2.01325759
6  -1.69075121  -4.43437949  -0.63290542
1  0.18470038  -5.02191708  -1.51973279
1  -3.43154095  -3.64099924  0.36097536
1  -4.12567618  0.65101163  3.31817735
1  -2.21907687  -5.29578156  -1.02874381
7  0.13891671  1.07546815  -0.80898092
7  0.17407792  -1.10018915  0.92226271

-c -h -mn -co -ag -ni -ni 0
def2svp
****
-n -o -f -cl 0
6-31+g(d)
****
-ce 0
sdd
****

-ce 0
sdd



