%chk=b.chk
%nprocshared=28 
%mem=48gb 
# 6-31g(d) m062x g09default scf=(xqc,maxcycle=64) force  guess=read   nosymm

 Title Card 

0 3
6  1.40971356  0.49540392  -0.48099854
6  1.41929009  -0.49613175  0.55740058
6  2.63805627  -0.98142834  1.02706293
6  3.84954169  -0.49267775  0.49461171
6  3.81288660  0.49358641  -0.57733473
6  2.58810752  0.97742545  -1.01803238
1  2.65553666  -1.73971877  1.78280081
1  2.55437852  1.74199959  -1.78408556
6  4.98489839  0.95799826  -1.19418664
7  5.96039233  1.37405118  -1.75366305
6  5.07973329  -0.98162775  1.03324505
7  6.05492963  -1.37755392  1.46919344
6  -0.32902669  2.24860722  -0.27177697
6  -0.87624254  0.46706831  -1.52883880
6  0.37343407  3.16622218  0.52426137
6  -1.69000143  2.43436025  -0.64265401
6  -0.83312647  -0.72481552  -2.23248098
6  -2.03559644  1.27949224  -1.45782438
6  -0.33179618  4.28411296  0.95545404
1  1.41468017  3.00504948  0.76445206
6  -2.34969463  3.56371869  -0.20321152
6  -2.01232735  -1.12784034  -2.88396886
1  0.07821847  -1.30959467  -2.29335042
6  -3.17727655  0.86715376  -2.14722811
6  -1.66692962  4.47554564  0.59370594
1  0.17719264  5.02339786  1.57233657
1  -3.39257246  3.74371594  -0.47993171
6  -3.14585385  -0.32705934  -2.83567251
1  -2.01463415  -2.06464280  -3.42910761
1  -4.07291962  1.49836525  -2.13926385
1  -2.18206362  5.37757989  0.93838088
1  -4.04836259  -0.65932007  -3.37961946
6  -0.87584778  -0.47443468  1.60533213
6  -0.32493081  -2.24830762  0.35674171
6  -0.86383640  0.68987126  2.32908772
6  -2.04300638  -1.27604149  1.45606363
6  0.42793671  -3.18471835  -0.43574687
6  -1.66443039  -2.39367649  0.65084719
6  -2.06121968  1.09962723  2.93817995
1  0.05046035  1.27156836  2.45427622
6  -3.22328042  -0.86087814  2.09964348
6  -0.35451744  -4.29482736  -0.91941483
1  1.44255610  -3.07182182  -0.62517833
6  -2.39153008  -3.52340402  0.14114466
6  -3.22164108  0.31397305  2.82280445
1  -2.08346789  2.01174583  3.50808775
1  -4.11669498  -1.47607791  2.02779440
6  -1.66782367  -4.41733623  -0.63546913
1  0.18970564  -5.02700208  -1.51107081
1  -3.42565039  -3.63998642  0.36347528
1  -4.12842569  0.64033546  3.32747778
1  -2.22449378  -5.30016513  -1.03771336
7  0.13759758  1.07254825  -0.80367497
7  0.17366377  -1.10472220  0.90782867

-c -h -mn -co -ag -ni -ni 0
def2svp
****
-n -o -f -cl 0
6-31+g(d)
****
-ce 0
sdd
****

-ce 0
sdd



