%chk=a.chk
%nprocshared=28 
%mem=48gb 
# 6-31g(d) m062x g09default scf=(xqc,maxcycle=64) force  guess=read  td nosymm

 Title Card 

0 1
6  1.40729206  0.49855133  -0.48092882
6  1.42423464  -0.50167227  0.56015153
6  2.63539036  -0.97501241  1.01734251
6  3.84631282  -0.49642213  0.49961324
6  3.81952674  0.49366919  -0.57856972
6  2.58362502  0.97780737  -1.01590720
1  2.65749715  -1.74287191  1.78558771
1  2.55300119  1.74619385  -1.78310860
6  4.99686542  0.96188804  -1.20218127
7  5.94873269  1.36925593  -1.74998391
6  5.06796532  -0.97577908  1.02742227
7  6.06763054  -1.38139907  1.47549271
6  -0.32940671  2.24751428  -0.26824972
6  -0.87796631  0.46901247  -1.52501076
6  0.37023452  3.16519734  0.52464717
6  -1.68714722  2.42931980  -0.63927650
6  -0.83587303  -0.72897109  -2.23391484
6  -2.03809147  1.27518886  -1.45935432
6  -0.32737906  4.28311954  0.95802806
1  1.41820673  3.00836694  0.75972890
6  -2.35566761  3.56339071  -0.20455339
6  -2.00768001  -1.12829949  -2.88023545
1  0.07638616  -1.31131586  -2.29159418
6  -3.17595879  0.87914640  -2.14213731
6  -1.66805438  4.48142500  0.59693173
1  0.17716106  5.02121012  1.57218475
1  -3.38942196  3.74613248  -0.48043364
6  -3.15487692  -0.33619973  -2.84464801
1  -2.01341386  -2.06400242  -3.42894568
1  -4.06702350  1.49896737  -2.14478757
1  -2.17959828  5.37601052  0.93617849
1  -4.04368014  -0.65744483  -3.37721909
6  -0.87840737  -0.48243308  1.59602530
6  -0.30488139  -2.25826187  0.34179638
6  -0.86593427  0.69920966  2.33365970
6  -2.04604741  -1.26619989  1.46292962
6  0.39332855  -3.19252741  -0.43319694
6  -1.68237120  -2.40846972  0.64422125
6  -2.06148566  1.09279819  2.93469023
1  0.04740672  1.27164029  2.45272667
6  -3.21894362  -0.86982872  2.09654204
6  -0.32195344  -4.27717801  -0.91700609
1  1.45656381  -3.07451517  -0.62432981
6  -2.37617803  -3.50711953  0.14687982
6  -3.22037455  0.31858444  2.82774386
1  -2.08514956  2.01350196  3.50892487
1  -4.11738800  -1.47702171  2.03060219
6  -1.69203153  -4.43143644  -0.63818209
1  0.18827966  -5.02884069  -1.50989463
1  -3.43150763  -3.64136696  0.36531537
1  -4.12872878  0.63924162  3.32747630
1  -2.21911243  -5.29218887  -1.03605685
7  0.14013394  1.07187335  -0.80145605
7  0.16964801  -1.09272569  0.90851174

-c -h -mn -co -ag -ni -ni 0
def2svp
****
-n -o -f -cl 0
6-31+g(d)
****
-ce 0
sdd
****

-ce 0
sdd



