%chk=b.chk
%nprocshared=28 
%mem=48gb 
# 6-31g(d) m062x g09default scf=(xqc,maxcycle=64) force  guess=read   nosymm

 Title Card 

0 3
6  1.40789154  0.49649825  -0.47981649
6  1.42515201  -0.50162046  0.55879955
6  2.63517187  -0.97517987  1.01746165
6  3.84583637  -0.49518595  0.49806113
6  3.81781013  0.49227655  -0.57606626
6  2.58372705  0.97780402  -1.01571298
1  2.65573013  -1.74396740  1.78727393
1  2.55385554  1.74415609  -1.78649904
6  4.99779126  0.96345785  -1.20200954
7  5.94833289  1.36878836  -1.74570153
6  5.06831538  -0.97637807  1.02770304
7  6.06626957  -1.38244922  1.47415566
6  -0.32697731  2.24917034  -0.27402846
6  -0.87776266  0.46955788  -1.52593841
6  0.37055146  3.16681967  0.52315382
6  -1.68661892  2.43238062  -0.64380894
6  -0.83454100  -0.72813841  -2.23519636
6  -2.03845345  1.27617237  -1.46040906
6  -0.32783253  4.28479674  0.95671177
1  1.41541718  3.00468673  0.76541522
6  -2.35602306  3.56312594  -0.20605816
6  -2.00801273  -1.12765350  -2.88203761
1  0.07821618  -1.30898252  -2.29394088
6  -3.17661069  0.87934070  -2.13957018
6  -1.66848576  4.48219683  0.59643914
1  0.17558366  5.02224485  1.57130770
1  -3.39050727  3.74307058  -0.47857633
6  -3.15454125  -0.33692187  -2.84420470
1  -2.01478162  -2.06377037  -3.42933074
1  -4.07044386  1.49510750  -2.13891154
1  -2.18143722  5.37506690  0.93780186
1  -4.04347041  -0.65734332  -3.37604918
6  -0.87690580  -0.48350427  1.59785070
6  -0.30308608  -2.26025961  0.34632952
6  -0.86411937  0.69873971  2.33491720
6  -2.04527923  -1.26645198  1.46271527
6  0.39369719  -3.19341646  -0.43206578
6  -1.68197919  -2.40958647  0.64717291
6  -2.06039190  1.09366996  2.93458037
1  0.04979053  1.27027107  2.45433982
6  -3.21863072  -0.86752158  2.09425095
6  -0.32200085  -4.27773860  -0.91720204
1  1.45449557  -3.07028680  -0.62788172
6  -2.37586544  -3.50802268  0.14682394
6  -3.21994695  0.32049860  2.82582827
1  -2.08313994  2.01410900  3.50947153
1  -4.11722415  -1.47512973  2.02748850
6  -1.69204642  -4.43213804  -0.63752967
1  0.18723919  -5.02755974  -1.51162948
1  -3.43120541  -3.64118972  0.36366618
1  -4.12781231  0.64045188  3.32652676
1  -2.21959170  -5.29330498  -1.03464842
7  0.13861857  1.07432630  -0.80349472
7  0.16992088  -1.09637067  0.91226383

-c -h -mn -co -ag -ni -ni 0
def2svp
****
-n -o -f -cl 0
6-31+g(d)
****
-ce 0
sdd
****

-ce 0
sdd



