%chk=a.chk
%nprocshared=28 
%mem=48gb 
# 6-31g(d) m062x g09default scf=(xqc,maxcycle=64)  nosymm

 Title Card 

0 1
6  1.40868900  0.49706000  -0.47944200
6  1.42511200  -0.49987100  0.55947000
6  2.63518900  -0.97383700  1.01645600
6  3.84659600  -0.49524400  0.49843300
6  3.81978500  0.49212600  -0.57723400
6  2.58422600  0.97701900  -1.01584100
1  2.65855300  -1.74276100  1.78506000
1  2.55233700  1.74800900  -1.78154000
6  5.00108500  0.96326900  -1.20508600
7  5.94467900  1.36761500  -1.74988900
6  5.06981600  -0.97644800  1.02830300
7  6.06604300  -1.37981800  1.47509000
6  -0.32991600  2.24340900  -0.26551700
6  -0.87744700  0.46951700  -1.52453100
6  0.37067500  3.16491000  0.52599400
6  -1.68876900  2.42814800  -0.63699100
6  -0.83603800  -0.72971800  -2.23266800
6  -2.03863700  1.27431300  -1.45896300
6  -0.32677800  4.28246800  0.95904900
1  1.41957700  3.01061900  0.75634700
6  -2.35595700  3.56251300  -0.20466200
6  -2.00860400  -1.12865200  -2.87944200
1  0.07521500  -1.31261100  -2.29035700
6  -3.17499700  0.88038100  -2.14253100
6  -1.66735700  4.48173800  0.59761500
1  0.17784500  5.02038000  1.57260400
1  -3.38865400  3.74784100  -0.48131700
6  -3.15514800  -0.33725300  -2.84570700
1  -2.01250100  -2.06387000  -3.42875600
1  -4.06474800  1.50093600  -2.14814700
1  -2.17865300  5.37655200  0.93528700
1  -4.04344800  -0.65739600  -3.37753800
6  -0.87874600  -0.48276200  1.59467900
6  -0.30437000  -2.25561200  0.33872000
6  -0.86680100  0.69987800  2.33274800
6  -2.04635600  -1.26613700  1.46290000
6  0.39205900  -3.19304300  -0.43428700
6  -1.68402300  -2.40849100  0.64281400
6  -2.06236500  1.09194500  2.93469400
1  0.04598600  1.27233800  2.45189100
6  -3.21872100  -0.87130400  2.09774900
6  -0.32027900  -4.27574500  -0.91656200
1  1.45709500  -3.07724600  -0.62212400
6  -2.37539500  -3.50592000  0.14729900
6  -3.22058700  0.31781400  2.82906300
1  -2.08630300  2.01328800  3.50871100
1  -4.11756000  -1.47796100  2.03232500
6  -1.69262900  -4.43153600  -0.63857300
1  0.18850500  -5.02922100  -1.50874300
1  -3.43173000  -3.64139100  0.36620800
1  -4.12911200  0.63863600  3.32781200
1  -2.21833800  -5.29086800  -1.03660500
7  0.13845900  1.07270700  -0.80016700
7  0.16713000  -1.09200000  0.90609100

-c -h -mn -co -ag -ni -ni 0
def2svp
****
-n -o -f -cl 0
6-31+g(d)
****
-ce 0
sdd
****

-ce 0
sdd



