%chk=b.chk
%nprocshared=28 
%mem=48gb 
# scf=(xqc,maxcycle=64) force  guess=read  oniom(b3lyp/em=gd3bj/6-31g(d):pm6) nosymm

 Title Card 

0 1 0 3 0 3
c  0.55541923  -0.17651694  -0.17839019 h
c  -0.08344282  -1.29484269  0.41762250 h
c  -0.26538849  0.88201333  -0.64069714 h
c  -1.45600709  -1.35571937  0.53312749 h
h  0.53524082  -2.11676496  0.77305658 h
c  1.97787100  -0.14542313  -0.31152975 h
c  -1.64220961  0.81779676  -0.50495026 h
h  0.18698920  1.75330334  -1.10814389 h
c  -2.25166589  -0.30069920  0.06496309 h
h  -1.92113254  -2.22506522  0.99071434 h
c  2.68787769  0.88669739  -1.00644657 h
h  2.51840474  -1.00098536  0.09954043 h
h  -2.25325533  1.64834925  -0.84979070 h
h  -3.33433712  -0.35442993  0.13924409 h
h  3.61005671  1.32606650  -0.63397536 h
h  2.33478178  1.28206432  -1.95693491 h
c  4.97287645  0.55614485  1.99529348 l
h  5.25617104  1.14691061  1.09894512 l
h  3.97489610  0.85928261  2.37498830 l
cl  6.18334689  0.77285320  3.25769621 l
cl  4.93624156  -1.16935069  1.56962855 l
c  5.73079506  -1.06898182  -1.56045997 l
h  4.65274172  -1.11184235  -1.29514438 l
h  6.33562211  -1.67782608  -0.85741065 l
cl  6.28870967  0.61351070  -1.51109427 l
cl  5.96256421  -1.65410541  -3.21199934 l
c  2.10629905  3.18510119  1.54234136 l
h  1.82610426  2.14808228  1.25271814 l
h  1.35915231  3.91239209  1.15715376 l
cl  3.71000378  3.57876398  0.89799229 l
cl  2.21485091  3.31080095  3.30532226 l
c  -2.26278742  0.81483214  3.47279305 l
h  -1.88784732  -0.22977049  3.50080208 l
h  -2.19848873  1.29593298  4.47158509 l
cl  -3.94443368  0.82227238  2.91500119 l
cl  -1.30506975  1.74056753  2.30523500 l
c  -1.05239645  4.56231635  4.58506250 l
h  -0.38524813  5.43777019  4.71331672 l
h  -0.87979548  4.07796014  3.60047507 l
cl  -2.73776486  5.06504555  4.72096083 l
cl  -0.73849727  3.38761999  5.88114694 l
c  4.43372475  1.09215125  -4.44803662 l
h  3.87404247  0.28465115  -3.92910073 l
h  5.52776057  0.91476085  -4.37725484 l
cl  4.04307613  2.66144392  -3.71343649 l
cl  3.93774150  1.17347759  -6.14256011 l
c  -5.42391804  1.97410719  -0.38929168 l
h  -6.31857122  1.41025598  -0.05627178 l
h  -4.61978068  1.93213452  0.37575604 l
cl  -5.86974019  3.66087897  -0.68455494 l
cl  -4.83591051  1.28974822  -1.91115826 l
c  -1.59001350  0.98005033  -4.08406341 l
h  -1.91623101  1.29782052  -5.09565313 l
h  -2.14937601  1.52461604  -3.29195414 l
cl  0.14806319  1.30081470  -3.90283712 l
cl  -1.83201933  -0.76087947  -3.89627133 l
c  -1.40290260  5.89316901  0.76151687 l
h  -1.03977593  6.11804251  -0.26478223 l
h  -2.28617531  6.51176824  1.02316352 l
cl  -0.10047043  6.20345979  1.92457837 l
cl  -1.82773505  4.17685505  0.88792812 l
c  1.11027469  0.33022755  4.93898635 l
h  0.73497152  1.32874407  4.62869971 l
h  1.95493229  0.42786453  5.65034689 l
cl  1.63677316  -0.57479200  3.51415186 l
cl  -0.20149207  -0.58043902  5.70387322 l
c  1.06822620  -2.17131191  -3.02732813 l
h  0.18932726  -2.76062423  -3.35575157 l
h  0.75478784  -1.16689266  -2.66642141 l
cl  2.20522102  -2.00132499  -4.37056202 l
cl  1.90747932  -3.03600371  -1.72560783 l
c  1.87018270  3.92753273  -5.95660123 l
h  2.84046204  3.81838930  -6.48361925 l
h  1.77653631  3.16123747  -5.16012246 l
cl  1.76424341  5.54813725  -5.24015301 l
cl  0.53443821  3.76606877  -7.09901272 l
c  -1.52371220  4.61776588  -3.68394738 l
h  -0.54389190  4.21088472  -4.01182574 l
h  -1.52422130  5.72657607  -3.73015190 l
cl  -2.81560489  3.97815597  -4.70790337 l
cl  -1.85655952  4.10117372  -2.01727114 l
c  2.15791531  5.96636592  -1.62452357 l
h  2.77252196  5.92608369  -2.54734221 l
h  2.79705006  5.92923136  -0.71849745 l
cl  1.18833371  7.44391824  -1.61865879 l
cl  1.02399722  4.60039248  -1.60946005 l
c  -4.37742498  6.87509532  -1.68665561 l
h  -5.34926509  6.93335276  -2.21674340 l
h  -4.07324990  5.81641335  -1.54036010 l
cl  -3.14313318  7.73031308  -2.62368553 l
cl  -4.51121754  7.67991858  -0.11764311 l


