%chk=b.chk
%nprocshared=28 
%mem=48gb 
# 6-31g(d) m062x g09default scf=(xqc,maxcycle=64) force  guess=read   nosymm

 Title Card 

0 3
6  1.40586297  0.49495773  -0.48360570
6  1.42390526  -0.50147523  0.56072900
6  2.63370235  -0.97336482  1.02197709
6  3.84581859  -0.49528524  0.50380089
6  3.81755649  0.48952341  -0.57773536
6  2.58371153  0.97074781  -1.02162107
1  2.65294773  -1.73885499  1.79361171
1  2.55435846  1.72663657  -1.80168389
6  5.00137547  0.96517894  -1.19629001
7  5.95257173  1.37547139  -1.72544787
6  5.06896583  -0.98068391  1.02895247
7  6.06505247  -1.39126587  1.46827722
6  -0.32692271  2.25092208  -0.27886185
6  -0.87595770  0.47395090  -1.53508599
6  0.36662093  3.16434791  0.52657483
6  -1.68494211  2.43421609  -0.64936578
6  -0.83210462  -0.72315333  -2.24672190
6  -2.03720943  1.27828615  -1.46672634
6  -0.33196792  4.28432748  0.95410235
1  1.40763910  2.99655026  0.78150227
6  -2.35780085  3.56128906  -0.20838998
6  -2.00603709  -1.12496700  -2.88767814
1  0.08237027  -1.30143269  -2.30474279
6  -3.18075223  0.87385159  -2.13364331
6  -1.67228606  4.48198337  0.59295216
1  0.17034604  5.02326854  1.56872438
1  -3.39522511  3.73588674  -0.47599742
6  -3.15729272  -0.33996886  -2.83962079
1  -2.01303469  -2.06159463  -3.43479210
1  -4.08211434  1.47829475  -2.11240447
1  -2.18780630  5.37128238  0.93935813
1  -4.04886575  -0.66639470  -3.36373423
6  -0.87370573  -0.48551630  1.60344039
6  -0.30241213  -2.26158065  0.34936943
6  -0.85681388  0.69470372  2.34305544
6  -2.04301583  -1.26645652  1.46701149
6  0.39258896  -3.18932175  -0.43776454
6  -1.67954630  -2.41133620  0.65146456
6  -2.05295118  1.09552073  2.93723723
1  0.06037196  1.26081058  2.46562449
6  -3.21789324  -0.86030023  2.09026758
6  -0.32370873  -4.27389258  -0.91980877
1  1.45069475  -3.06128882  -0.64228217
6  -2.37386124  -3.50783737  0.15105755
6  -3.21620959  0.32914857  2.82065952
1  -2.07410364  2.01717025  3.51071623
1  -4.12172854  -1.45825956  2.01254878
6  -1.68976484  -4.43254007  -0.63393346
1  0.18495454  -5.02112028  -1.52075384
1  -3.43025590  -3.64019868  0.36523282
1  -4.12604629  0.65596010  3.31305336
1  -2.21778961  -5.29523291  -1.02791578
7  0.14039941  1.07447956  -0.80958452
7  0.17200051  -1.09673056  0.91508284

-c -h -mn -co -ag -ni -ni 0
def2svp
****
-n -o -f -cl 0
6-31+g(d)
****
-ce 0
sdd
****

-ce 0
sdd



