%chk=b.chk
%nprocshared=28 
%mem=48gb 
# scf=(xqc,maxcycle=64) force  guess=read  oniom(b3lyp/em=gd3bj/6-31g(d):pm6) nosymm

 Title Card 

0 1 0 3 0 3
c  0.54930783  -0.17331140  -0.17401924 h
c  -0.08909230  -1.29021053  0.42873805 h
c  -0.27748240  0.87342273  -0.65154880 h
c  -1.46283802  -1.36013623  0.52853350 h
h  0.52656727  -2.10814865  0.79886167 h
c  1.97130584  -0.13320972  -0.31592698 h
c  -1.65424642  0.80847919  -0.51642249 h
h  0.17111076  1.73099224  -1.14614286 h
c  -2.26259339  -0.30768625  0.05907911 h
h  -1.92925730  -2.24133942  0.96178141 h
c  2.68538411  0.90856612  -0.99496593 h
h  2.52080488  -0.98813195  0.08286615 h
h  -2.26229291  1.63173022  -0.88347329 h
h  -3.34526310  -0.36884504  0.12832981 h
h  3.64186458  1.28480184  -0.63858907 h
h  2.37190053  1.29120097  -1.96503264 h
c  4.98145582  0.55628235  1.98967275 l
h  5.26599376  1.14188954  1.09036113 l
h  3.98535953  0.86570607  2.36931398 l
cl  6.19489726  0.77318747  3.24898738 l
cl  4.93563352  -1.17093439  1.57143342 l
c  5.71918556  -1.06330389  -1.56271716 l
h  4.64378246  -1.12335104  -1.28983993 l
h  6.33857641  -1.65748062  -0.85990510 l
cl  6.25207496  0.62748976  -1.52623048 l
cl  5.95053542  -1.65398084  -3.21218496 l
c  2.11304278  3.18175561  1.54763609 l
h  1.84933802  2.14056748  1.25710243 l
h  1.36208519  3.89829640  1.15011855 l
cl  3.72047019  3.59138547  0.92326682 l
cl  2.19748230  3.31509801  3.31165963 l
c  -2.24791233  0.80587333  3.50104903 l
h  -1.89427686  -0.24581561  3.54340395 l
h  -2.21182225  1.28446928  4.50277443 l
cl  -3.90963813  0.84090532  2.88489844 l
cl  -1.24291107  1.71910304  2.36257373 l
c  -1.03936299  4.54695970  4.56110218 l
h  -0.36783651  5.42042372  4.67774474 l
h  -0.87973519  4.06081475  3.57521356 l
cl  -2.72227722  5.05216688  4.71733918 l
cl  -0.71341713  3.37762379  5.85955732 l
c  4.43361206  1.06837766  -4.43680533 l
h  3.88699736  0.24642887  -3.92639046 l
h  5.53022979  0.90669974  -4.36946479 l
cl  4.02293586  2.62545310  -3.68720105 l
cl  3.93277109  1.16136250  -6.12940801 l
c  -5.42876044  1.95379705  -0.38430247 l
h  -6.32196470  1.36746412  -0.08870664 l
h  -4.65139244  1.92228952  0.40842745 l
cl  -5.89800732  3.63377120  -0.68150610 l
cl  -4.77688468  1.29520936  -1.89155737 l
c  -1.59578318  0.98988570  -4.09820835 l
h  -1.93260371  1.30203070  -5.10816137 l
h  -2.14450653  1.53840484  -3.30126646 l
cl  0.14477058  1.30654881  -3.93641439 l
cl  -1.83820456  -0.75049951  -3.89997619 l
c  -1.42303934  5.89850488  0.75016570 l
h  -1.05975561  6.12802651  -0.27554515 l
h  -2.29781483  6.52793189  1.01467718 l
cl  -0.11203192  6.19099625  1.90837770 l
cl  -1.86213515  4.18443946  0.87859585 l
c  1.10662704  0.33661984  4.95089899 l
h  0.72949825  1.34045376  4.65980414 l
h  1.95512365  0.42121221  5.65898124 l
cl  1.62443763  -0.54355408  3.50736886 l
cl  -0.20037378  -0.58716907  5.70915376 l
c  1.06603971  -2.16992023  -3.02949928 l
h  0.19412871  -2.76902526  -3.35875129 l
h  0.74431281  -1.16183244  -2.68626292 l
cl  2.21533806  -2.01424997  -4.36400011 l
cl  1.89566131  -3.01208776  -1.70711632 l
c  1.87271022  3.92450417  -5.94063003 l
h  2.84353219  3.81400603  -6.46609019 l
h  1.77605188  3.15543919  -5.14722961 l
cl  1.77128710  5.54321400  -5.21921646 l
cl  0.53791951  3.77234669  -7.08540842 l
c  -1.50764967  4.64469341  -3.67914750 l
h  -0.52115846  4.26350753  -4.01792318 l
h  -1.53965329  5.75089480  -3.76167976 l
cl  -2.80541184  3.93539500  -4.65086583 l
cl  -1.80492020  4.15659582  -1.99756162 l
c  2.14626598  5.98185506  -1.62579264 l
h  2.76116341  5.93857102  -2.54794152 l
h  2.77857992  5.94163373  -0.71569726 l
cl  1.18438673  7.46507758  -1.62499863 l
cl  1.01248910  4.61889533  -1.61184410 l
c  -4.37693617  6.88848610  -1.68586262 l
h  -5.34935550  6.94614795  -2.21490723 l
h  -4.08541357  5.82984655  -1.51470586 l
cl  -3.13636595  7.70831848  -2.64618756 l
cl  -4.49571499  7.73360287  -0.13693459 l


