%chk=a.chk
%nprocshared=28 
%mem=48gb 
# scf=(xqc,maxcycle=64) force  guess=read  oniom(td/b3lyp/em=gd3bj/6-31g(d):pm6) nosymm

 Title Card 

0 1 0 1 0 1
c  0.55474464  -0.17660195  -0.18035494 h
c  -0.08415523  -1.29441855  0.41566494 h
c  -0.26713570  0.88126180  -0.64678293 h
c  -1.45616825  -1.35654905  0.52945301 h
h  0.53677931  -2.11308391  0.77489597 h
c  1.97589508  -0.14667865  -0.30959362 h
c  -1.64419849  0.81605197  -0.51072410 h
h  0.18572468  1.75301945  -1.11275015 h
c  -2.25248231  -0.30244450  0.05943052 h
h  -1.91897277  -2.22428708  0.99241206 h
c  2.68635466  0.88827354  -1.00472507 h
h  2.52158223  -0.99853996  0.10270089 h
h  -2.25688531  1.64798699  -0.85226817 h
h  -3.33547772  -0.35734135  0.13662417 h
h  3.61283250  1.31624881  -0.63080374 h
h  2.33176709  1.28291028  -1.95487832 h
c  4.97449236  0.55634188  1.99410394 l
h  5.25796570  1.14631050  1.09725622 l
h  3.97695900  0.86075140  2.37397952 l
cl  6.18576626  0.77252241  3.25577650 l
cl  4.93607896  -1.16948385  1.56984411 l
c  5.72894361  -1.06827256  -1.56076638 l
h  4.65122674  -1.11370668  -1.29441124 l
h  6.33640452  -1.67439815  -0.85763257 l
cl  6.28257641  0.61570842  -1.51404765 l
cl  5.96059077  -1.65498997  -3.21171597 l
c  2.10783447  3.18438924  1.54310152 l
h  1.83110076  2.14620312  1.25431509 l
h  1.36005669  3.91005046  1.15590867 l
cl  3.71200757  3.57968225  0.90101519 l
cl  2.21200916  3.31242122  3.30622736 l
c  -2.26032792  0.81392776  3.47700579 l
h  -1.88780219  -0.23143178  3.50804937 l
h  -2.20015980  1.29374163  4.47671259 l
cl  -3.93913494  0.82536999  2.91047860 l
cl  -1.29668021  1.73802842  2.31276373 l
c  -1.04986941  4.55971140  4.58081076 l
h  -0.38180493  5.43479391  4.70651805 l
h  -0.87963393  4.07436183  3.59630386 l
cl  -2.73478599  5.06309360  4.71985859 l
cl  -0.73382407  3.38685125  5.87813129 l
c  4.43403095  1.08789486  -4.44637739 l
h  3.87639106  0.27846264  -3.92825263 l
h  5.52850994  0.91287400  -4.37632711 l
cl  4.03972093  2.65527260  -3.70962829 l
cl  3.93684790  1.17051384  -6.14052747 l
c  -5.42521634  1.97005552  -0.38877211 l
h  -6.31971779  1.40209834  -0.06262353 l
h  -4.62589939  1.92991057  0.38149744 l
cl  -5.87608138  3.65554173  -0.68378874 l
cl  -4.82666344  1.29047726  -1.90866040 l
c  -1.59093241  0.98138055  -4.08658783 l
h  -1.91897545  1.29809522  -5.09792231 l
h  -2.14808271  1.52694027  -3.29355235 l
cl  0.14767791  1.30120398  -3.90908825 l
cl  -1.83342444  -0.75939291  -3.89720730 l
c  -1.40674044  5.89346570  0.76059612 l
h  -1.04398015  6.11913220  -0.26572360 l
h  -2.28922546  6.51333393  1.02206811 l
cl  -0.10213145  6.20184017  1.92178442 l
cl  -1.83243633  4.17725761  0.88918414 l
c  1.11006589  0.33102565  4.94151591 l
h  0.73403601  1.33034528  4.63456818 l
h  1.95550357  0.42676848  5.65218200 l
cl  1.63519467  -0.56995306  3.51358451 l
cl  -0.20064108  -0.58218826  5.70530785 l
c  1.06755263  -2.17089521  -3.02780911 l
h  0.18942130  -2.76160593  -3.35564118 l
h  0.75180132  -1.16570582  -2.67091834 l
cl  2.20768842  -2.00434294  -4.36885930 l
cl  1.90555444  -3.03219858  -1.72300990 l
c  1.87080341  3.92712913  -5.95347737 l
h  2.84104122  3.81745628  -6.48036482 l
h  1.77664363  3.16039856  -5.15744555 l
cl  1.76639277  5.54767253  -5.23668250 l
cl  0.53526532  3.76744375  -7.09640244 l
c  -1.52316577  4.62196858  -3.68360211 l
h  -0.54240517  4.21726388  -4.01107296 l
h  -1.53001648  5.73061569  -3.73396241 l
cl  -2.81289539  3.97381884  -4.70503036 l
cl  -1.84888316  4.10882894  -2.01442410 l
c  2.15755374  5.97004543  -1.62407055 l
h  2.77337948  5.92959368  -2.54601474 l
h  2.79746496  5.93410420  -0.71857931 l
cl  1.18552513  7.44617791  -1.61969625 l
cl  1.02327784  4.60457584  -1.60879213 l
c  -4.37741705  6.87806637  -1.68645854 l
h  -5.34945179  6.93587632  -2.21624182 l
h  -4.07527695  5.81943884  -1.53527941 l
cl  -3.14254595  7.72718427  -2.62830855 l
cl  -4.50839367  7.69085534  -0.12130887 l


