%chk=b.chk
%nprocshared=28 
%mem=48gb 
# scf=(xqc,maxcycle=64) force  guess=read  oniom(b3lyp/em=gd3bj/6-31g(d):pm6) nosymm

 Title Card 

0 1 0 3 0 3
c  0.55482444  -0.17645057  -0.17987233 h
c  -0.08382056  -1.29453061  0.41635033 h
c  -0.26647529  0.88137245  -0.64480641 h
c  -1.45613479  -1.35643504  0.53070698 h
h  0.53623773  -2.11419838  0.77427238 h
c  1.97653220  -0.14628399  -0.31016415 h
c  -1.64347340  0.81674054  -0.50912582 h
h  0.18603097  1.75317652  -1.11144443 h
c  -2.25246114  -0.30214337  0.06104877 h
h  -1.91970446  -2.22442328  0.99195108 h
c  2.68675844  0.88776227  -1.00500945 h
h  2.52017149  -0.99952342  0.10165984 h
h  -2.25554980  1.64791355  -0.85148183 h
h  -3.33492837  -0.35640049  0.13727748 h
h  3.61175616  1.31971287  -0.63195273 h
h  2.33302442  1.28256835  -1.95540966 h
c  4.97403221  0.55628831  1.99445209 l
h  5.25744411  1.14648448  1.09774654 l
h  3.97637027  0.86033385  2.37427296 l
cl  6.18508268  0.77262133  3.25633168 l
cl  4.93613135  -1.16943682  1.56976881 l
c  5.72949643  -1.06848581  -1.56068173 l
h  4.65168553  -1.11317177  -1.29462315 l
h  6.33616227  -1.67540693  -0.85755491 l
cl  6.28438620  0.61505658  -1.51319300 l
cl  5.96118125  -1.65476996  -3.21179248 l
c  2.10740930  3.18457791  1.54288758 l
h  1.82960819  2.14675027  1.25386160 l
h  1.35982691  3.91068962  1.15623859 l
cl  3.71142702  3.57937831  0.90009508 l
cl  2.21289185  3.31199212  3.30595829 l
c  -2.26106028  0.81421263  3.47574473 l
h  -1.88778019  -0.23091102  3.50583952 l
h  -2.19962874  1.29446580  4.47515065 l
cl  -3.94072635  0.82441670  2.91186935 l
cl  -1.29923205  1.73880212  2.31048746 l
c  -1.05059758  4.56048162  4.58206277 l
h  -0.38280147  5.43567940  4.70847298 l
h  -0.87966232  4.07538806  3.59755339 l
cl  -2.73564433  5.06368258  4.72016649 l
cl  -0.73518397  3.38710416  5.87903795 l
c  4.43393077  1.08913745  -4.44686233 l
h  3.87571283  0.28026410  -3.92848960 l
h  5.52827872  0.91342600  -4.37662572 l
cl  4.04071308  2.65708664  -3.71075645 l
cl  3.93712435  1.17133958  -6.14112760 l
c  -5.42492154  1.97121990  -0.38894006 l
h  -6.31943173  1.40441127  -0.06074555 l
h  -4.62413201  1.93053798  0.37972565 l
cl  -5.87424253  3.65710314  -0.68400805 l
cl  -4.82937308  1.29028257  -1.90939086 l
c  -1.59065324  0.98097114  -4.08586099 l
h  -1.91817916  1.29802135  -5.09725433 l
h  -2.14844605  1.52624989  -3.29310614 l
cl  0.14779847  1.30106654  -3.90726117 l
cl  -1.83303157  -0.75983971  -3.89693388 l
c  -1.40559653  5.89334568  0.76091896 l
h  -1.04281738  6.11870804  -0.26543431 l
h  -2.28833055  6.51279742  1.02245246 l
cl  -0.10165409  6.20239624  1.92264482 l
cl  -1.83101547  4.17711302  0.88884365 l
c  1.11013582  0.33077297  4.94079950 l
h  0.73433228  1.32985383  4.63285249 l
h  1.95535136  0.42709283  5.65165611 l
cl  1.63568076  -0.57137480  3.51377359 l
cl  -0.20086304  -0.58170550  5.70492577 l
c  1.06773940  -2.17105441  -3.02766937 l
h  0.18937003  -2.76131553  -3.35572392 l
h  0.75273177  -1.16607923  -2.66960158 l
cl  2.20692187  -2.00345169  -4.36937885 l
cl  1.90608997  -3.03325017  -1.72370188 l
c  1.87064911  3.92725685  -5.95439948 l
h  2.84090341  3.81770434  -6.48131417 l
h  1.77659748  3.16068667  -5.15821931 l
cl  1.76578253  5.54780650  -5.23768700 l
cl  0.53502576  3.76705168  -7.09714046 l
c  -1.52332101  4.62071246  -3.68373107 l
h  -0.54281093  4.21541818  -4.01133750 l
h  -1.52834568  5.72940609  -3.73278061 l
cl  -2.81371070  3.97513739  -4.70589707 l
cl  -1.85143083  4.10644075  -2.01538423 l
c  2.15770261  5.96905424  -1.62419836 l
h  2.77314714  5.92859975  -2.54641296 l
h  2.79733901  5.93273915  -0.71852376 l
cl  1.18636849  7.44557249  -1.61938361 l
cl  1.02368486  4.60330295  -1.60891536 l
c  -4.37742441  6.87724540  -1.68651010 l
h  -5.34940909  6.93513022  -2.21637280 l
h  -4.07467922  5.81861047  -1.53675437 l
cl  -3.14273592  7.72811643  -2.62699197 l
cl  -4.50922362  7.68770816  -0.12023526 l


