%chk=b.chk
%nprocshared=28 
%mem=48gb 
# scf=(xqc,maxcycle=64) force  guess=read  oniom(b3lyp/em=gd3bj/6-31g(d):pm6) nosymm

 Title Card 

0 1 0 3 0 3
c  0.55517685  -0.17654477  -0.17912257 h
c  -0.08380940  -1.29465050  0.41700184 h
c  -0.26583047  0.88181563  -0.64265273 h
c  -1.45586792  -1.35595018  0.53195073 h
h  0.53577162  -2.11560368  0.77354488 h
c  1.97724469  -0.14583163  -0.31086634 h
c  -1.64275517  0.81728194  -0.50694714 h
h  0.18652433  1.75330305  -1.10962719 h
c  -2.25196710  -0.30149084  0.06306446 h
h  -1.92050438  -2.22473866  0.99148736 h
c  2.68730161  0.88711360  -1.00569098 h
h  2.51901890  -1.00047051  0.10058896 h
h  -2.25422226  1.64813622  -0.85049741 h
h  -3.33456435  -0.35530353  0.13825304 h
h  3.61067788  1.32341271  -0.63305455 h
h  2.33397819  1.28222568  -1.95612378 h
c  4.97342225  0.55621711  1.99489876 l
h  5.25676560  1.14671759  1.09838298 l
h  3.97559364  0.85978389  2.37465541 l
cl  6.18417399  0.77273945  3.25705140 l
cl  4.93619143  -1.16938323  1.56968444 l
c  5.73020206  -1.06876122  -1.56056340 l
h  4.65226092  -1.11246191  -1.29490481 l
h  6.33587092  -1.67670997  -0.85746560 l
cl  6.28671782  0.61421782  -1.51208008 l
cl  5.96193308  -1.65445345  -3.21189353 l
c  2.10683464  3.18484476  1.54259527 l
h  1.82773005  2.14744981  1.25327392 l
h  1.35949139  3.91157958  1.15670896 l
cl  3.71067299  3.57900421  0.89892117 l
cl  2.21397644  3.31139659  3.30561082 l
c  -2.26199632  0.81456949  3.47413131 l
h  -1.88777314  -0.23025765  3.50308404 l
h  -2.19898029  1.29529672  4.47319747 l
cl  -3.94275533  0.82323570  2.91360271 l
cl  -1.30246364  1.73979111  2.30757595 l
c  -1.05155019  4.56147133  4.58367387 l
h  -0.38409879  5.43680997  4.71103889 l
h  -0.87971961  4.07673953  3.59914058 l
cl  -2.73676803  5.06442959  4.72057489 l
cl  -0.73695011  3.38741643  5.88019809 l
c  4.43382125  1.09074866  -4.44749813 l
h  3.87482389  0.28262014  -3.92880326 l
h  5.52800130  0.91413232  -4.37698586 l
cl  4.04198904  2.65942935  -3.71221701 l
cl  3.93746218  1.17244550  -6.14190434 l
c  -5.42443920  1.97274540  -0.38914479 l
h  -6.31901064  1.40749069  -0.05835022 l
h  -4.62182443  1.93137036  0.37754928 l
cl  -5.87186827  3.65911462  -0.68429314 l
cl  -4.83290137  1.29000050  -1.91036082 l
c  -1.59030309  0.98045883  -4.08490510 l
h  -1.91713599  1.29790815  -5.09639619 l
h  -2.14892807  1.52536647  -3.29249950 l
cl  0.14794943  1.30090539  -3.90489807 l
cl  -1.83250552  -0.76041038  -3.89658479 l
c  -1.40414827  5.89321893  0.76128998 l
h  -1.04123734  6.11827839  -0.26505893 l
h  -2.28719489  6.51217719  1.02287982 l
cl  -0.10101755  6.20302459  1.92370595 l
cl  -1.82920464  4.17693756  0.88842510 l
c  1.11022472  0.33046361  4.93984968 l
h  0.73468759  1.32923720  4.63063616 l
h  1.95514597  0.42750970  5.65096815 l
cl  1.63629181  -0.57322316  3.51400121 l
cl  -0.20117126  -0.58105413  5.70439317 l
c  1.06798847  -2.17120815  -3.02749003 l
h  0.18932057  -2.76093526  -3.35575383 l
h  0.75384216  -1.16652242  -2.66791511 l
cl  2.20599899  -2.00232341  -4.37001559 l
cl  1.90682015  -3.03469987  -1.72469852 l
c  1.87041773  3.92741261  -5.95557711 l
h  2.84068551  3.81805416  -6.48254442 l
h  1.77656077  3.16100825  -5.15922483 l
cl  1.76498720  5.54799224  -5.23900644 l
cl  0.53471644  3.76653630  -7.09812602 l
c  -1.52357540  4.61910678  -3.68387225 l
h  -0.54342289  4.21294742  -4.01158737 l
h  -1.52620498  5.72787104  -3.73129966 l
cl  -2.81472468  3.97684257  -4.70713282 l
cl  -1.85437617  4.10349076  -2.01647600 l
c  2.15787451  5.96767824  -1.62435585 l
h  2.77287759  5.92729958  -2.54688968 l
h  2.79725382  5.93095027  -0.71850078 l
cl  1.18739481  7.44468899  -1.61898907 l
cl  1.02398643  4.60173090  -1.60914527 l
c  -4.37742988  6.87613214  -1.68658396 l
h  -5.34934277  6.93417962  -2.21655876 l
h  -4.07390773  5.81747768  -1.53866826 l
cl  -3.14297106  7.72931903  -2.62525417 l
cl  -4.51029215  7.68359454  -0.11885049 l


