%chk=a.chk
%nprocshared=28 
%mem=48gb 
# scf=(xqc,maxcycle=64) force  guess=read  oniom(td/b3lyp/em=gd3bj/6-31g(d):pm6) nosymm

 Title Card 

0 1 0 1 0 1
c  0.55020091  -0.17310112  -0.17724054 h
c  -0.08885561  -1.29372116  0.42419273 h
c  -0.27374415  0.87438226  -0.65378522 h
c  -1.46236066  -1.35405833  0.52420687 h
h  0.53051032  -2.10719167  0.79341405 h
c  1.96998231  -0.13809806  -0.31334892 h
c  -1.65566826  0.80975183  -0.51686671 h
h  0.17496760  1.73663635  -1.13847962 h
c  -2.25491146  -0.30885641  0.05837482 h
h  -1.92506841  -2.23776803  0.97129923 h
c  2.68751615  0.90466158  -0.99866018 h
h  2.52546123  -0.98789047  0.09102362 h
h  -2.26337332  1.63664286  -0.87626711 h
h  -3.34578781  -0.36730768  0.12990222 h
h  3.63614308  1.28520373  -0.63378872 h
h  2.35619038  1.28994164  -1.96122922 h
c  4.98022006  0.55631628  1.99040854 l
h  5.26455073  1.14288156  1.09152717 l
h  3.98384833  0.86491820  2.37019044 l
cl  6.19327264  0.77284720  3.25002316 l
cl  4.93564717  -1.17060250  1.57114751 l
c  5.72105398  -1.06434862  -1.56235154 l
h  4.64504422  -1.12142884  -1.29077989 l
h  6.33841902  -1.66067018  -0.85939531 l
cl  6.25776464  0.62520949  -1.52411611 l
cl  5.95240480  -1.65443689  -3.21192396 l
c  2.11217229  3.18223089  1.54659374 l
h  1.84666485  2.14144502  1.25706556 l
h  1.36181818  3.90071882  1.15141059 l
cl  3.71881033  3.58868560  0.91874331 l
cl  2.20006822  3.31484495  3.31034657 l
c  -2.25025134  0.80761037  3.49637012 l
h  -1.89263795  -0.24270707  3.53719210 l
h  -2.20952073  1.28568526  4.49807961 l
cl  -3.91533116  0.83814283  2.88972062 l
cl  -1.25360624  1.72299990  2.35237697 l
c  -1.04124256  4.54928797  4.56468742 l
h  -0.37025579  5.42304347  4.68293123 l
h  -0.87972733  4.06312350  3.57908752 l
cl  -2.72445574  5.05424590  4.71763059 l
cl  -0.71708568  3.37976969  5.86325670 l
c  4.43389478  1.07196398  -4.43880709 l
h  3.88501737  0.25263534  -3.92657143 l
h  5.53019729  0.90759298  -4.37078845 l
cl  4.02610815  2.63096134  -3.69174786 l
cl  3.93341524  1.16281434  -6.13154856 l
c  -5.42786058  1.95658010  -0.38535098 l
h  -6.32157281  1.37395220  -0.08439069 l
h  -4.64691240  1.92353908  0.40401397 l
cl  -5.89467310  3.63739072  -0.68180886 l
cl  -4.78671616  1.29414448  -1.89519234 l
c  -1.59488158  0.98815008  -4.09600789 l
h  -1.92997544  1.30100179  -5.10635776 l
h  -2.14500324  1.53624697  -3.29969622 l
cl  0.14531628  1.30530251  -3.93157289 l
cl  -1.83737144  -0.75213042  -3.89963525 l
c  -1.42032011  5.89741940  0.75236223 l
h  -1.05684823  6.12653501  -0.27319970 l
h  -2.29673350  6.52492042  1.01598701 l
cl  -0.11009414  6.19285957  1.91054046 l
cl  -1.85615617  4.18288345  0.88193046 l
c  1.10743862  0.33547304  4.94928006 l
h  0.73021138  1.33847125  4.65538710 l
h  1.95541896  0.42225093  5.65789071 l
cl  1.62661609  -0.54875593  3.50872769 l
cl  -0.20014987  -0.58637306  5.70850919 l
c  1.06631752  -2.16971786  -3.02921388 l
h  0.19300281  -2.76750228  -3.35754630 l
h  0.74476468  -1.16224012  -2.68393665 l
cl  2.21451246  -2.01292801  -4.36447498 l
cl  1.89758934  -3.01631147  -1.71089029 l
c  1.87225592  3.92504445  -5.94273642 l
h  2.84280492  3.81471735  -6.46858821 l
h  1.77635362  3.15632055  -5.14902918 l
cl  1.77081348  5.54406777  -5.22272653 l
cl  0.53771256  3.77158652  -7.08731249 l
c  -1.51186768  4.64038229  -3.68001048 l
h  -0.52676133  4.25347625  -4.01538083 l
h  -1.53929744  5.74693651  -3.75597598 l
cl  -2.80608721  3.94397226  -4.66454715 l
cl  -1.81219841  4.14748284  -2.00057164 l
c  2.14899931  5.97963619  -1.62512287 l
h  2.76471795  5.93759868  -2.54668957 l
h  2.78395355  5.94152726  -0.71673805 l
cl  1.18355363  7.46032687  -1.62404463 l
cl  1.01427337  4.61711962  -1.61106865 l
c  -4.37699668  6.88671683  -1.68593234 l
h  -5.34946141  6.94447844  -2.21515321 l
h  -4.08348209  5.82796744  -1.51821749 l
cl  -3.13778962  7.71210867  -2.64303732 l
cl  -4.49795693  7.72627119  -0.13429374 l


