%chk=b.chk
%nprocshared=28 
%mem=48gb 
# scf=(xqc,maxcycle=64) force  guess=read  oniom(b3lyp/em=gd3bj/6-31g(d):pm6) nosymm

 Title Card 

0 1 0 3 0 3
c  0.54855945  -0.17071278  -0.17317293 h
c  -0.08994355  -1.29129982  0.43388291 h
c  -0.27546386  0.87183941  -0.65022396 h
c  -1.46695255  -1.35378194  0.52656026 h
h  0.52352162  -2.10792480  0.80291191 h
c  1.97068070  -0.12911135  -0.31815401 h
c  -1.65957590  0.80624523  -0.51522365 h
h  0.16779449  1.72613353  -1.15195302 h
c  -2.25645406  -0.31224104  0.06167621 h
h  -1.93337078  -2.24747904  0.95601948 h
c  2.68550762  0.91234636  -0.99202225 h
h  2.51815529  -0.98816082  0.07719332 h
h  -2.26122105  1.62810875  -0.88936685 h
h  -3.34987636  -0.37003663  0.12713904 h
h  3.64553749  1.28289234  -0.64249025 h
h  2.38329468  1.29229655  -1.96757702 h
c  4.98251464  0.55621715  1.98908737 l
h  5.26719111  1.14111008  1.08937328 l
h  3.98658474  0.86637196  2.36860514 l
cl  6.19620741  0.77343519  3.24808209 l
cl  4.93561171  -1.17117730  1.57167600 l
c  5.71767901  -1.06244753  -1.56307624 l
h  4.64269384  -1.12491104  -1.28906997 l
h  6.33875674  -1.65488247  -0.86029537 l
cl  6.24739399  0.62934078  -1.52798444 l
cl  5.94899305  -1.65361473  -3.21234428 l
c  2.11378393  3.18133738  1.54845515 l
h  1.85165369  2.13989112  1.25722073 l
h  1.36233520  3.89633637  1.14911464 l
cl  3.72174115  3.59353068  0.92699399 l
cl  2.19534158  3.31532247  3.31261085 l
c  -2.24601215  0.80447508  3.50487386 l
h  -1.89558065  -0.24831026  3.54856809 l
h  -2.21370566  1.28338020  4.50664838 l
cl  -3.90495073  0.84319696  2.88094059 l
cl  -1.23419122  1.71590804  2.37085925 l
c  -1.03783899  4.54502040  4.55816595 l
h  -0.36582530  5.41827273  4.67348025 l
h  -0.87974797  4.05889914  3.57201625 l
cl  -2.72044428  5.05045281  4.71708101 l
cl  -0.71039880  3.37593241  5.85652533 l
c  4.43337753  1.06545862  -4.43523524 l
h  3.88860945  0.24135357  -3.92621514 l
h  5.53032672  0.90593332  -4.36836870 l
cl  4.02034660  2.62090920  -3.68352854 l
cl  3.93222956  1.16015242  -6.12762048 l
c  -5.42943499  1.95145507  -0.38354750 l
h  -6.32225988  1.36218386  -0.09233469 l
h  -4.65508887  1.92124791  0.41217492 l
cl  -5.90083608  3.63072071  -0.68124131 l
cl  -4.76892609  1.29609125  -1.88856806 l
c  -1.59651244  0.99123761  -4.09998652 l
h  -1.93474928  1.30283538  -5.10967307 l
h  -2.14408459  1.54017043  -3.30252255 l
cl  0.14429640  1.30753472  -3.94042366 l
cl  -1.83887622  -0.74908293  -3.90028642 l
c  -1.42530978  5.89937382  0.74837229 l
h  -1.06212878  6.12928900  -0.27736371 l
h  -2.29874636  6.53037012  1.01358353 l
cl  -0.11365953  6.18940735  1.90650338 l
cl  -1.86698160  4.18577243  0.87601904 l
c  1.10595627  0.33752123  4.95223356 l
h  0.72888237  1.34208343  4.66346673 l
h  1.95491599  0.42035890  5.65991010 l
cl  1.62266267  -0.53931725  3.50627948 l
cl  -0.20050255  -0.58781042  5.70966671 l
c  1.06590973  -2.16998523  -3.02969141 l
h  0.19499386  -2.77030333  -3.35965391 l
h  0.74380477  -1.16146187  -2.68823487 l
cl  2.21608638  -2.01541770  -4.36352575 l
cl  1.89405303  -3.00867693  -1.70421273 l
c  1.87300685  3.92409323  -5.93884747 l
h  2.84405700  3.81344999  -6.46401165 l
h  1.77583427  3.15473720  -5.14578187 l
cl  1.77173146  5.54242001  -5.21642385 l
cl  0.53820854  3.77300629  -7.08376481 l
c  -1.50441129  4.64826164  -3.67842169 l
h  -0.51684439  4.27157983  -4.01981320 l
h  -1.54010761  5.75400689  -3.76630596 l
cl  -2.80467540  3.92856238  -4.64002612 l
cl  -1.79872435  4.16411886  -1.99514996 l
c  2.14405105  5.98362930  -1.62630278 l
h  2.75836015  5.93947304  -2.54882043 l
h  2.77437274  5.94189208  -0.71493881 l
cl  1.18499874  7.46871234  -1.62579174 l
cl  1.01098913  4.62055058  -1.61247684 l
c  -4.37683211  6.89000609  -1.68576558 l
h  -5.34931134  6.94755867  -2.21472587 l
h  -4.08698648  5.83135764  -1.51177968 l
cl  -3.13525985  7.70522191  -2.64875991 l
cl  -4.49385167  7.73966383  -0.13919035 l


