%chk=b.chk
%nprocshared=28 
%mem=48gb 
# scf=(xqc,maxcycle=64) force  guess=read  oniom(b3lyp/em=gd3bj/6-31g(d):pm6) nosymm

 Title Card 

0 1 0 3 0 3
c  0.55024465  -0.17433519  -0.17623811 h
c  -0.08800092  -1.29164332  0.42375241 h
c  -0.27595197  0.87476957  -0.65323276 h
c  -1.46095477  -1.36006705  0.52732062 h
h  0.53017362  -2.10777845  0.79360584 h
c  1.97109533  -0.13805343  -0.31329984 h
c  -1.65254917  0.81074989  -0.51735978 h
h  0.17491290  1.73665613  -1.13881116 h
c  -2.26157814  -0.30629527  0.05756644 h
h  -1.92490805  -2.23617718  0.97001483 h
c  2.68599850  0.90418036  -0.99829798 h
h  2.52437827  -0.98827436  0.09005604 h
h  -2.26313972  1.63613602  -0.87625340 h
h  -3.34296764  -0.36724508  0.12983234 h
h  3.63683333  1.28676632  -0.63401051 h
h  2.35770838  1.28989065  -1.96190062 h
c  4.98017460  0.55634651  1.99040112 l
h  5.26453005  1.14285174  1.09156448 l
h  3.98385156  0.86489314  2.37018640 l
cl  6.19328098  0.77287952  3.25008315 l
cl  4.93565994  -1.17062608  1.57113725 l
c  5.72104106  -1.06435036  -1.56230134 l
h  4.64510137  -1.12143927  -1.29078083 l
h  6.33836401  -1.66067211  -0.85941822 l
cl  6.25780708  0.62522009  -1.52408122 l
cl  5.95242162  -1.65442498  -3.21197477 l
c  2.11214160  3.18225610  1.54663272 l
h  1.84651451  2.14141228  1.25696850 l
h  1.36178215  3.90070053  1.15135678 l
cl  3.71889235  3.58874819  0.91870950 l
cl  2.20010349  3.31482281  3.31046676 l
c  -2.25024748  0.80758755  3.49636569 l
h  -1.89267518  -0.24275864  3.53708437 l
h  -2.20951339  1.28579350  4.49803089 l
cl  -3.91537998  0.83809901  2.88974521 l
cl  -1.25359382  1.72302815  2.35240561 l
c  -1.04124030  4.54932827  4.56470592 l
h  -0.37029727  5.42306358  4.68297169 l
h  -0.87971963  4.06316054  3.57912891 l
cl  -2.72451281  5.05426451  4.71765367 l
cl  -0.71711581  3.37970582  5.86326612 l
c  4.43388915  1.07196600  -4.43874890 l
h  3.88501707  0.25264354  -3.92659942 l
h  5.53012704  0.90763547  -4.37080588 l
cl  4.02610919  2.63101522  -3.69170441 l
cl  3.93343622  1.16284542  -6.13158430 l
c  -5.42792752  1.95665810  -0.38525401 l
h  -6.32160329  1.37393827  -0.08426770 l
h  -4.64685549  1.92356564  0.40385704 l
cl  -5.89454793  3.63750298  -0.68182857 l
cl  -4.78664821  1.29413441  -1.89521410 l
c  -1.59488524  0.98820682  -4.09602070 l
h  -1.92997607  1.30104377  -5.10631705 l
h  -2.14502623  1.53624505  -3.29972124 l
cl  0.14534757  1.30533781  -3.93150407 l
cl  -1.83737802  -0.75221259  -3.89960011 l
c  -1.42025672  5.89743314  0.75236123 l
h  -1.05684781  6.12648190  -0.27330081 l
h  -2.29667494  6.52494141  1.01601550 l
cl  -0.11004935  6.19293332  1.91065871 l
cl  -1.85618544  4.18281352  0.88176959 l
c  1.10743973  0.33550358  4.94926372 l
h  0.73024688  1.33846250  4.65531836 l
h  1.95538499  0.42225766  5.65784942 l
cl  1.62661334  -0.54874723  3.50870572 l
cl  -0.20020580  -0.58637635  5.70851984 l
c  1.06623575  -2.16981890  -3.02924607 l
h  0.19304994  -2.76747395  -3.35764259 l
h  0.74492393  -1.16228620  -2.68385172 l
cl  2.21442238  -2.01282793  -4.36456828 l
cl  1.89762222  -3.01626669  -1.71070381 l
c  1.87232195  3.92501777  -5.94280683 l
h  2.84288145  3.81469166  -6.46863542 l
h  1.77632127  3.15630719  -5.14901426 l
cl  1.77074645  5.54415851  -5.22265458 l
cl  0.53759401  3.77154536  -7.08739978 l
c  -1.51164249  4.64033525  -3.68002680 l
h  -0.52646633  4.25360695  -4.01558833 l
h  -1.53910442  5.74705736  -3.75600697 l
cl  -2.80629906  3.94377763  -4.66417428 l
cl  -1.81247460  4.14738754  -2.00053231 l
c  2.14896861  5.97967588  -1.62516761 l
h  2.76459951  5.93747570  -2.54684903 l
h  2.78374691  5.94133200  -0.71663633 l
cl  1.18364367  7.46058296  -1.62402875 l
cl  1.01432070  4.61689632  -1.61107101 l
c  -4.37704555  6.88664495  -1.68596912 l
h  -5.34942469  6.94442345  -2.21513657 l
h  -4.08348433  5.82798235  -1.51828708 l
cl  -3.13773094  7.71210932  -2.64303115 l
cl  -4.49799578  7.72617410  -0.13418787 l


