%chk=b.chk
%nprocshared=28 
%mem=48gb 
# scf=(xqc,maxcycle=64) force  guess=read  oniom(b3lyp/em=gd3bj/6-31g(d):pm6) nosymm

 Title Card 

0 1 0 3 0 3
c  0.55157531  -0.17510700  -0.17918555 h
c  -0.08645272  -1.29392580  0.41798239 h
c  -0.27291732  0.87647812  -0.65501562 h
c  -1.45937077  -1.35830611  0.52521276 h
h  0.53457335  -2.10737135  0.78674175 h
c  1.97095311  -0.14399679  -0.31004023 h
c  -1.65139508  0.81361083  -0.51828085 h
h  0.17962610  1.74379319  -1.12939193 h
c  -2.25841506  -0.30551880  0.05615045 h
h  -1.91980763  -2.23027007  0.98070533 h
c  2.68643790  0.89840396  -1.00207716 h
h  2.52840215  -0.98898868  0.09882342 h
h  -2.26378279  1.64161962  -0.86696849 h
h  -3.34065778  -0.36501375  0.13179349 h
h  3.63018811  1.29022626  -0.62853429 h
h  2.34036941  1.28813701  -1.95827686 h
c  4.97848973  0.55643547  1.99135731 l
h  5.26261116  1.14408380  1.09315368 l
h  3.98188061  0.86381722  2.37132277 l
cl  6.19117135  0.77250505  3.25154610 l
cl  4.93570394  -1.17023307  1.57074650 l
c  5.72345452  -1.06570575  -1.56175068 l
h  4.64684987  -1.11896213  -1.29200086 l
h  6.33805064  -1.66483341  -0.85879456 l
cl  6.26529518  0.62227113  -1.52125614 l
cl  5.95488701  -1.65498286  -3.21172571 l
c  2.11095211  3.18291120  1.54536197 l
h  1.84272431  2.14251156  1.25672335 l
h  1.36136369  3.90381288  1.15292876 l
cl  3.71687890  3.58536660  0.91277143 l
cl  2.20354459  3.31444322  3.30898023 l
c  -2.25329239  0.80980178  3.49026910 l
h  -1.89062408  -0.23882353  3.52877454 l
h  -2.20650506  1.28760241  4.49181714 l
cl  -3.92287526  0.83441300  2.89607340 l
cl  -1.26747988  1.72815186  2.33920486 l
c  -1.04369557  4.55243251  4.56942018 l
h  -0.37352903  5.42652007  4.68980874 l
h  -0.87969369  4.06624332  3.58425339 l
cl  -2.72745696  5.05700415  4.71808271 l
cl  -0.72195622  3.38236823  5.86808872 l
c  4.43422779  1.07665110  -4.44125243 l
h  3.88243627  0.26072755  -3.92689199 l
h  5.52994983  0.90888674  -4.37256143 l
cl  4.03024040  2.63828931  -3.69752961 l
cl  3.93432365  1.16480198  -6.13442475 l
c  -5.42689738  1.96043284  -0.38645187 l
h  -6.32115161  1.38235742  -0.07839203 l
h  -4.64089563  1.92524798  0.39779633 l
cl  -5.88994097  3.64244599  -0.68226444 l
cl  -4.79930700  1.29274452  -1.89996171 l
c  -1.59371318  0.98603967  -4.09317515 l
h  -1.92655972  1.29979621  -5.10389419 l
h  -2.14572449  1.53343578  -3.29772778 l
cl  0.14611397  1.30378940  -3.92506021 l
cl  -1.83630049  -0.75447630  -3.89908524 l
c  -1.41657990  5.89603989  0.75521131 l
h  -1.05306346  6.12442552  -0.27045023 l
h  -2.29513531  6.52106539  1.01778019 l
cl  -0.10745163  6.19550545  1.91370652 l
cl  -1.84846161  4.18066819  0.88576306 l
c  1.10848416  0.33406117  4.94711907 l
h  0.73124672  1.33587058  4.64942459 l
h  1.95570084  0.42362399  5.65634880 l
cl  1.62943795  -0.55549338  3.51042891 l
cl  -0.20002262  -0.58533729  5.70769490 l
c  1.06647268  -2.16975093  -3.02891886 l
h  0.19166304  -2.76545478  -3.35628757 l
h  0.74585074  -1.16292205  -2.68064312 l
cl  2.21314771  -2.01089841  -4.36537344 l
cl  1.90018486  -3.02165514  -1.71524747 l
c  1.87184108  3.92567800  -5.94569203 l
h  2.84209309  3.81556697  -6.47198687 l
h  1.77664493  3.15743830  -5.15133796 l
cl  1.76998704  5.54542324  -5.22708865 l
cl  0.53710457  3.77047459  -7.09003585 l
c  -1.51667216  4.63464628  -3.68117627 l
h  -0.53314150  4.24084080  -4.01271739 l
h  -1.53822345  5.74212117  -3.74865270 l
cl  -2.80759810  3.95452961  -4.68114468 l
cl  -1.82250836  4.13534412  -2.00439977 l
c  2.15243390  5.97686681  -1.62439432 l
h  2.76895541  5.93595138  -2.54554987 l
h  2.79028352  5.94077692  -0.71778161 l
cl  1.18277634  7.45490997  -1.62275408 l
cl  1.01675109  4.61414119  -1.61007194 l
c  -4.37720231  6.88421922  -1.68611888 l
h  -5.34950086  6.94213597  -2.21543151 l
h  -4.08097244  5.82555285  -1.52300260 l
cl  -3.13947107  7.71703296  -2.63890568 l
cl  -4.50099315  7.71641375  -0.13054896 l


