%chk=a.chk
%nprocshared=28 
%mem=48gb 
# scf=(xqc,maxcycle=64) force  guess=read  oniom(td/b3lyp/em=gd3bj/6-31g(d):pm6) nosymm

 Title Card 

0 1 0 1 0 1
c  0.55180640  -0.17549458  -0.17919406 h
c  -0.08703645  -1.29368036  0.41764862 h
c  -0.27318300  0.87696575  -0.65474533 h
c  -1.45849086  -1.35818813  0.52525365 h
h  0.53496315  -2.10776029  0.78601899 h
c  1.97142838  -0.14407127  -0.31001146 h
c  -1.65043188  0.81316169  -0.51779592 h
h  0.18007724  1.74448265  -1.12840363 h
c  -2.25788561  -0.30499500  0.05593913 h
h  -1.91971316  -2.22992695  0.98172579 h
c  2.68647338  0.89780884  -1.00212396 h
h  2.52815030  -0.98968085  0.09929163 h
h  -2.26367143  1.64234236  -0.86609345 h
h  -3.34048395  -0.36462734  0.13207271 h
h  3.62886564  1.29153851  -0.62858014 h
h  2.33958097  1.28776646  -1.95795758 h
c  4.97826833  0.55643692  1.99150238 l
h  5.26235211  1.14421981  1.09337807 l
h  3.98161167  0.86365873  2.37147136 l
cl  6.19088334  0.77248946  3.25176891 l
cl  4.93572352  -1.17018421  1.57069261 l
c  5.72376916  -1.06586033  -1.56168967 l
h  4.64710202  -1.11866060  -1.29214627 l
h  6.33796725  -1.66537479  -0.85872374 l
cl  6.26627886  0.62189045  -1.52086187 l
cl  5.95521182  -1.65501921  -3.21171156 l
c  2.11079019  3.18299162  1.54523863 l
h  1.84210517  2.14268050  1.25661170 l
h  1.36129300  3.90417952  1.15308940 l
cl  3.71663170  3.58499933  0.91203850 l
cl  2.20402202  3.31436352  3.30883824 l
c  -2.25369635  0.81007107  3.48947783 l
h  -1.89041834  -0.23836319  3.52760477 l
h  -2.20612330  1.28793516  4.49095552 l
cl  -3.92379909  0.83390317  2.89691466 l
cl  -1.26923966  1.72874908  2.33763296 l
c  -1.04403559  4.55284627  4.57005749 l
h  -0.37397733  5.42698839  4.69072586 l
h  -0.87968496  4.06667662  3.58493988 l
cl  -2.72786059  5.05735862  4.71816329 l
cl  -0.72261105  3.38265570  5.86868550 l
c  4.43422846  1.07727860  -4.44155105 l
h  3.88210130  0.26174898  -3.92695581 l
h  5.52988006  0.90909055  -4.37279314 l
cl  4.03077822  2.63924972  -3.69823866 l
cl  3.93446673  1.16508956  -6.13477661 l
c  -5.42682423  1.96095232  -0.38659895 l
h  -6.32108827  1.38343984  -0.07753364 l
h  -4.64007186  1.92549048  0.39687869 l
cl  -5.88921405  3.64316181  -0.68234253 l
cl  -4.80089098  1.29261140  -1.90047832 l
c  -1.59355149  0.98576294  -4.09280633 l
h  -1.92613018  1.29968414  -5.10356365 l
h  -2.14584165  1.53307220  -3.29749043 l
cl  0.14621404  1.30362351  -3.92417646 l
cl  -1.83615375  -0.75477577  -3.89899014 l
c  -1.41603911  5.89585881  0.75556103 l
h  -1.05258026  6.12410920  -0.27015769 l
h  -2.29485361  6.52058743  1.01803115 l
cl  -0.10712517  6.19588384  1.91417128 l
cl  -1.84750841  4.18043726  0.88607435 l
c  1.10859128  0.33387876  4.94681738 l
h  0.73140590  1.33554061  4.64860507 l
h  1.95571122  0.42380376  5.65612410 l
cl  1.62978289  -0.55632800  3.51063626 l
cl  -0.20003513  -0.58518497  5.70758103 l
c  1.06652401  -2.16981029  -3.02885672 l
h  0.19149872  -2.76521578  -3.35622812 l
h  0.74613727  -1.16306706  -2.68014333 l
cl  2.21287120  -2.01055711  -4.36554604 l
cl  1.90050048  -3.02226509  -1.71570506 l
c  1.87178588  3.92576292  -5.94612006 l
h  2.84205425  3.81566278  -6.47245919 l
h  1.77665271  3.15759794  -5.15165243 l
cl  1.76982018  5.54558846  -5.22762340 l
cl  0.53699331  3.77031032  -7.09039902 l
c  -1.51714796  4.63391151  -3.68134940 l
h  -0.53374463  4.23938265  -4.01255720 l
h  -1.53789762  5.74147994  -3.74775960 l
cl  -2.80784474  3.95574934  -4.68276597 l
cl  -1.82404369  4.13376843  -2.00496820 l
c  2.15278517  5.97652912  -1.62434834 l
h  2.76933626  5.93563544  -2.54552853 l
h  2.79085030  5.94049932  -0.71784284 l
cl  1.18282455  7.45437650  -1.62257826 l
cl  1.01715991  4.61363484  -1.60995733 l
c  -4.37721074  6.88389926  -1.68613321 l
h  -5.34950527  6.94179398  -2.21547162 l
h  -4.08065031  5.82523726  -1.52367122 l
cl  -3.13967008  7.71762899  -2.63833422 l
cl  -4.50140523  7.71503410  -0.13004296 l


