%chk=a.chk
%nprocshared=28 
%mem=48gb 
# scf=(xqc,maxcycle=64) force  guess=read  oniom(td/b3lyp/em=gd3bj/6-31g(d):pm6) nosymm

 Title Card 

0 1 0 1 0 1
c  0.55221931  -0.17570104  -0.17987622 h
c  -0.08636539  -1.29403591  0.41647855 h
c  -0.27210556  0.87763967  -0.65438497 h
c  -1.45804861  -1.35816873  0.52536095 h
h  0.53588257  -2.10808796  0.78376887 h
c  1.97204676  -0.14519091  -0.30941878 h
c  -1.64957121  0.81398102  -0.51754733 h
h  0.18136545  1.74655551  -1.12545612 h
c  -2.25717141  -0.30457520  0.05574807 h
h  -1.91869106  -2.22823085  0.98463712 h
c  2.68638042  0.89598125  -1.00287160 h
h  2.52819672  -0.99082325  0.10117579 h
h  -2.26319558  1.64377416  -0.86318708 h
h  -3.33947807  -0.36361579  0.13276981 h
h  3.62597218  1.29433163  -0.62789463 h
h  2.33601213  1.28691864  -1.95688239 h
c  4.97766529  0.55644991  1.99188130 l
h  5.26165364  1.14461431  1.09397356 l
h  3.98088796  0.86324155  2.37187662 l
cl  6.19010639  0.77241689  3.25234760 l
cl  4.93576337  -1.17005087  1.57054908 l
c  5.72462835  -1.06630137  -1.56151485 l
h  4.64776243  -1.11781701  -1.29255412 l
h  6.33778138  -1.66685404  -0.85851981 l
cl  6.26895374  0.62084974  -1.51980945 l
cl  5.95609435  -1.65514755  -3.21165760 l
c  2.11035315  3.18321601  1.54485321 l
h  1.84053602  2.14313140  1.25638551 l
h  1.36112139  3.90521226  1.15357738 l
cl  3.71592559  3.58393031  0.91001733 l
cl  2.20529739  3.31416916  3.30838830 l
c  -2.25478444  0.81081162  3.48733414 l
h  -1.88980531  -0.23705961  3.52449885 l
h  -2.20507584  1.28874786  4.48865598 l
cl  -3.92638438  0.83254031  2.89918514 l
cl  -1.27406330  1.73044770  2.33320519 l
c  -1.04494443  4.55396488  4.57177616 l
h  -0.37517804  5.42824800  4.69320845 l
h  -0.87966765  4.06783263  3.58679371 l
cl  -2.72894379  5.05832635  4.71836267 l
cl  -0.72437800  3.38349471  5.87033872 l
c  4.43427225  1.07897815  -4.44239287 l
h  3.88118325  0.26456325  -3.92710561 l
h  5.52973496  0.90961034  -4.37341794 l
cl  4.03224678  2.64185759  -3.70022015 l
cl  3.93482899  1.16584915  -6.13575439 l
c  -5.42655603  1.96234987  -0.38700553 l
h  -6.32091828  1.38641586  -0.07527671 l
h  -4.63786698  1.92613345  0.39450312 l
cl  -5.88734613  3.64504673  -0.68253535 l
cl  -4.80527151  1.29219957  -1.90198817 l
c  -1.59312073  0.98500254  -4.09179609 l
h  -1.92494144  1.29932983  -5.10267417 l
h  -2.14613718  1.53207484  -3.29682057 l
cl  0.14648225  1.30313770  -3.92180513 l
cl  -1.83575534  -0.75557873  -3.89875731 l
c  -1.41462189  5.89537739  0.75652530 l
h  -1.05124595  6.12329595  -0.26927896 l
h  -2.29415071  6.51926067  1.01869340 l
cl  -0.10623240  6.19686752  1.91536581 l
cl  -1.84486243  4.17976596  0.88711043 l
c  1.10890818  0.33337658  4.94601542 l
h  0.73181007  1.33463705  4.64641599 l
h  1.95576605  0.42429229  5.65553868 l
cl  1.63074426  -0.55864859  3.51121132 l
cl  -0.20003595  -0.58477989  5.70727172 l
c  1.06664533  -2.16990482  -3.02870735 l
h  0.19104381  -2.76454382  -3.35595131 l
h  0.74676227  -1.16340212  -2.67884925 l
cl  2.21222059  -2.00971091  -4.36595331 l
cl  1.90137634  -3.02401986  -1.71708830 l
c  1.87162798  3.92599677  -5.94723717 l
h  2.84187161  3.81594679  -6.47370923 l
h  1.77670687  3.15802857  -5.15251068 l
cl  1.76942568  5.54602013  -5.22913369 l
cl  0.53674625  3.76988737  -7.09136327 l
c  -1.51859163  4.63190479  -3.68178571 l
h  -0.53565415  4.23522761  -4.01191410 l
h  -1.53719054  5.73971936  -3.74526861 l
cl  -2.80845604  3.95923128  -4.68773295 l
cl  -1.82799214  4.12949353  -2.00646058 l
c  2.15383371  5.97556690  -1.62417451 l
h  2.77053028  5.93488477  -2.54532515 l
h  2.79264541  5.93992992  -0.71809972 l
cl  1.18282213  7.45271350  -1.62210899 l
cl  1.01817671  4.61239934  -1.60963797 l
c  -4.37724996  6.88302418  -1.68617989 l
h  -5.34952004  6.94090253  -2.21557970 l
h  -4.07976520  5.82436720  -1.52544636 l
cl  -3.14023480  7.71929805  -2.63680375 l
cl  -4.50250960  7.71136425  -0.12868971 l


