%chk=a.chk
%nprocshared=28 
%mem=48gb 
# scf=(xqc,maxcycle=64) force  guess=read  oniom(td/b3lyp/em=gd3bj/6-31g(d):pm6) nosymm

 Title Card 

0 1 0 1 0 1
c  0.55321148  -0.17588276  -0.18059631 h
c  -0.08589915  -1.29435940  0.41565458 h
c  -0.27040248  0.87877755  -0.65289635 h
c  -1.45728425  -1.35722434  0.52572274 h
h  0.53674329  -2.10914974  0.78067942 h
c  1.97317978  -0.14616676  -0.30899196 h
c  -1.64822373  0.81486627  -0.51636515 h
h  0.18292687  1.74908672  -1.12134460 h
c  -2.25540412  -0.30443756  0.05621391 h
h  -1.91819247  -2.22665570  0.98825306 h
c  2.68597572  0.89325804  -1.00349349 h
h  2.52691964  -0.99302913  0.10271218 h
h  -2.26175245  1.64545332  -0.85931114 h
h  -3.33827161  -0.36183709  0.13383786 h
h  3.62162532  1.30011003  -0.62798508 h
h  2.33303189  1.28560438  -1.95568517 h
c  4.97674191  0.55644858  1.99250102 l
h  5.26057620  1.14516536  1.09491124 l
h  3.97976180  0.86256313  2.37249442 l
cl  6.18888567  0.77237601  3.25329242 l
cl  4.93584589  -1.16986222  1.57032960 l
c  5.72592889  -1.06692735  -1.56127405 l
h  4.64879171  -1.11657282  -1.29314062 l
h  6.33742657  -1.66909958  -0.85822892 l
cl  6.27301743  0.61928879  -1.51815753 l
cl  5.95743720  -1.65524589  -3.21162031 l
c  2.10966325  3.18355061  1.54431181 l
h  1.83793020  2.14392429  1.25590561 l
h  1.36085015  3.90669293  1.15427197 l
cl  3.71481389  3.58246458  0.90710918 l
cl  2.20728234  3.31378760  3.30774077 l
c  -2.25643593  0.81184325  3.48416473 l
h  -1.88902299  -0.23520275  3.51965152 l
h  -2.20352776  1.29014247  4.48509457 l
cl  -3.93025161  0.83042331  2.90261860 l
cl  -1.28115736  1.73288768  2.32677361 l
c  -1.04636122  4.55567300  4.57442831 l
h  -0.37706664  5.43018397  4.69704914 l
h  -0.87964004  4.06966533  3.58963103 l
cl  -2.73062902  5.05977912  4.71872614 l
cl  -0.72711693  3.38464376  5.87276426 l
c  4.43426376  1.08159605  -4.44362039 l
h  3.87978107  0.26876202  -3.92738420 l
h  5.52943221  0.91048650  -4.37434615 l
cl  4.03447534  2.64583462  -3.70312722 l
cl  3.93541690  1.16709331  -6.13720647 l
c  -5.42620536  1.96454541  -0.38758224 l
h  -6.32063685  1.39095296  -0.07167244 l
h  -4.63442711  1.92716927  0.39070303 l
cl  -5.88425801  3.64804214  -0.68286835 l
cl  -4.81177744  1.29164708  -1.90411102 l
c  -1.59246127  0.98387146  -4.09026184 l
h  -1.92315821  1.29888250  -5.10128917 l
h  -2.14664076  1.53055444  -3.29584033 l
cl  0.14686962  1.30247304  -3.91811768 l
cl  -1.83511935  -0.75676704  -3.89835026 l
c  -1.41236092  5.89470798  0.75789571 l
h  -1.04920058  6.12200402  -0.26807559 l
h  -2.29288708  6.51732571  1.01972141 l
cl  -0.10493938  6.19839771  1.91725852 l
cl  -1.84098084  4.17886794  0.88823182 l
c  1.10932185  0.33263474  4.94475520 l
h  0.73246284  1.33329988  4.64299289 l
h  1.95577756  0.42503403  5.65459585 l
cl  1.63214884  -0.56209050  3.51201639 l
cl  -0.20011342  -0.58410599  5.70676589 l
c  1.06686688  -2.17015661  -3.02845594 l
h  0.19043292  -2.76358424  -3.35572700 l
h  0.74801663  -1.16401741  -2.67670018 l
cl  2.21102932  -2.00826079  -4.36669932 l
cl  1.90265829  -3.02652981  -1.71897359 l
c  1.87140209  3.92634880  -5.94902111 l
h  2.84163867  3.81636970  -6.47564971 l
h  1.77672857  3.15872696  -5.15388372 l
cl  1.76868352  5.54660067  -5.23138823 l
cl  0.53632947  3.76920579  -7.09283479 l
c  -1.52034928  4.62889326  -3.68241912 l
h  -0.53809553  4.22939119  -4.01132350 l
h  -1.53563366  5.73701999  -3.74165714 l
cl  -2.80957831  3.96408550  -4.69408911 l
cl  -1.83426556  4.12309379  -2.00884146 l
c  2.15521113  5.97408553  -1.62402658 l
h  2.77189075  5.93352854  -2.54527541 l
h  2.79473909  5.93865082  -0.71835346 l
cl  1.18320482  7.45051860  -1.62138642 l
cl  1.01981672  4.61027664  -1.60922712 l
c  -4.37730883  6.88165242  -1.68625445 l
h  -5.34952070  6.93947071  -2.21574965 l
h  -4.07842745  5.82300964  -1.52825031 l
cl  -3.14101602  7.72174249  -2.63440100 l
cl  -4.50422538  7.70555925  -0.12656394 l


