%chk=a.chk
%nprocshared=28 
%mem=48gb 
# scf=(xqc,maxcycle=64) force  guess=read  oniom(td/b3lyp/em=gd3bj/6-31g(d):pm6) nosymm

 Title Card 

0 1 0 1 0 1
c  0.55367039  -0.17624041  -0.18092402 h
c  -0.08485967  -1.29436166  0.41493091 h
c  -0.26925561  0.87964632  -0.65145428 h
c  -1.45692315  -1.35755927  0.52676903 h
h  0.53721277  -2.11010287  0.77825598 h
c  1.97408860  -0.14692398  -0.30874813 h
c  -1.64673463  0.81540862  -0.51510627 h
h  0.18418670  1.75106947  -1.11805258 h
c  -2.25472433  -0.30356122  0.05653195 h
h  -1.91773058  -2.22505332  0.99065589 h
c  2.68599495  0.89122313  -1.00400690 h
h  2.52574040  -0.99479018  0.10372769 h
h  -2.26052720  1.64677030  -0.85630264 h
h  -3.33700216  -0.36038962  0.13474511 h
h  3.61813492  1.30496321  -0.62825782 h
h  2.33089991  1.28458606  -1.95489161 h
c  4.97597321  0.55643759  1.99302430 l
h  5.25968024  1.14560881  1.09569700 l
h  3.97881794  0.86198423  2.37300807 l
cl  6.18785484  0.77236207  3.25409379 l
cl  4.93591580  -1.16971169  1.57015147 l
c  5.72699904  -1.06743626  -1.56108142 l
h  4.64963836  -1.11554863  -1.29361530 l
h  6.33712119  -1.67095679  -0.85799461 l
cl  6.27637260  0.61800989  -1.51677479 l
cl  5.95854561  -1.65528408  -3.21160472 l
c  2.10907386  3.18383171  1.54386410 l
h  1.83572579  2.14462051  1.25547693 l
h  1.36061656  3.90790530  1.15485305 l
cl  3.71387054  3.58130859  0.90477905 l
cl  2.20892588  3.31343087  3.30719309 l
c  -2.25780010  0.81266513  3.48157483 l
h  -1.88842794  -0.23372408  3.51563824 l
h  -2.20227368  1.29131625  4.48216206 l
cl  -3.93343836  0.82866948  2.90543125 l
cl  -1.28690504  1.73485628  2.32154664 l
c  -1.04754572  4.55708411  4.57663027 l
h  -0.37865197  5.43178637  4.70026011 l
h  -0.87962333  4.07121218  3.59197223 l
cl  -2.73203622  5.06096930  4.71905042 l
cl  -0.72940206  3.38555302  5.87473812 l
c  4.43424064  1.08376936  -4.44462666 l
h  3.87861340  0.27221536  -3.92763117 l
h  5.52916888  0.91123717  -4.37509202 l
cl  4.03631680  2.64912649  -3.70550175 l
cl  3.93590346  1.16816473  -6.13839876 l
c  -5.42589364  1.96638904  -0.38804502 l
h  -6.32038184  1.39474835  -0.06865079 l
h  -4.63154828  1.92805168  0.38755709 l
cl  -5.88163548  3.65055089  -0.68315327 l
cl  -4.81711673  1.29119580  -1.90583712 l
c  -1.59192001  0.98295292  -4.08898818 l
h  -1.92168425  1.29853205  -5.10013606 l
h  -2.14707796  1.52929349  -3.29503012 l
cl  0.14717802  1.30194694  -3.91504325 l
cl  -1.83457493  -0.75772860  -3.89799975 l
c  -1.41047141  5.89418763  0.75897932 l
h  -1.04747032  6.12095653  -0.26711632 l
h  -2.29178422  6.51577698  1.02056314 l
cl  -0.10389684  6.19964126  1.91881780 l
cl  -1.83782417  4.17816995  0.88901957 l
c  1.10964459  0.33203390  4.94369049 l
h  0.73300148  1.33221374  4.64013613 l
h  1.95576209  0.42564544  5.65380328 l
cl  1.63328710  -0.56491678  3.51265063 l
cl  -0.20020560  -0.58351889  5.70632319 l
c  1.06706385  -2.17036850  -3.02824553 l
h  0.18996887  -2.76281781  -3.35557019 l
h  0.74911397  -1.16454132  -2.67486266 l
cl  2.21000606  -2.00702587  -4.36734732 l
cl  1.90370515  -3.02859080  -1.72050982 l
c  1.87120800  3.92663538  -5.95051197 l
h  2.84142858  3.81673125  -6.47726041 l
h  1.77673737  3.15930967  -5.15505262 l
cl  1.76802641  5.54704439  -5.23325857 l
cl  0.53598865  3.76863207  -7.09405314 l
c  -1.52169564  4.62642194  -3.68290133 l
h  -0.54000503  4.22470512  -4.01092022 l
h  -1.53417952  5.73478170  -3.73874381 l
cl  -2.81056600  3.96794996  -4.69902399 l
cl  -1.83940400  4.11788665  -2.01080462 l
c  2.15627281  5.97280155  -1.62393549 l
h  2.77286593  5.93235428  -2.54529712 l
h  2.79628459  5.93747379  -0.71853948 l
cl  1.18364636  7.44875518  -1.62079205 l
cl  1.02112394  4.60847534  -1.60893733 l
c  -4.37735508  6.88048570  -1.68631866 l
h  -5.34951745  6.93827205  -2.21589957 l
h  -4.07732088  5.82185054  -1.53060102 l
cl  -3.14163442  7.72373800  -2.63237876 l
cl  -4.50565276  7.70067728  -0.12478707 l


