%chk=b.chk
%nprocshared=28 
%mem=48gb 
# scf=(xqc,maxcycle=64) force  guess=read  oniom(b3lyp/em=gd3bj/6-31g(d):pm6) nosymm

 Title Card 

0 1 0 3 0 3
c  0.55423274  -0.17615034  -0.18060778 h
c  -0.08443697  -1.29443502  0.41585806 h
c  -0.26744768  0.88050601  -0.64773665 h
c  -1.45622241  -1.35690673  0.52887045 h
h  0.53664571  -2.11228362  0.77594404 h
c  1.97553950  -0.14648730  -0.30949068 h
c  -1.64487882  0.81646088  -0.51220960 h
h  0.18507243  1.75231828  -1.11454272 h
c  -2.25368541  -0.30333715  0.05887237 h
h  -1.91891735  -2.22464754  0.99161597 h
c  2.68617603  0.88923143  -1.00422063 h
h  2.52223890  -0.99771093  0.10258090 h
h  -2.25754902  1.64716919  -0.85352985 h
h  -3.33567599  -0.35813167  0.13597399 h
h  3.61418778  1.31346295  -0.63053726 h
h  2.33246471  1.28333386  -1.95488282 h
c  4.97495439  0.55636746  1.99378220 l
h  5.25849214  1.14607842  1.09678219 l
h  3.97753258  0.86112691  2.37367816 l
cl  6.18641376  0.77249278  3.25527210 l
cl  4.93603876  -1.16955343  1.56993322 l
c  5.72834688  -1.06800326  -1.56087365 l
h  4.65075341  -1.11429319  -1.29415505 l
h  6.33659695  -1.67333479  -0.85774530 l
cl  6.28066613  0.61642157  -1.51487952 l
cl  5.95996441  -1.65507436  -3.21169059 l
c  2.10822325  3.18420643  1.54335881 l
h  1.83245430  2.14574379  1.25463900 l
h  1.36024713  3.90933667  1.15555115 l
cl  3.71257305  3.58021083  0.90220212 l
cl  2.21109142  3.31273181  3.30653689 l
c  -2.25955387  0.81352730  3.47842163 l
h  -1.88801913  -0.23215755  3.51031447 l
h  -2.20080491  1.29307728  4.47834652 l
cl  -3.93736110  0.82635753  2.90894704 l
cl  -1.29365366  1.73701439  2.31554450 l
c  -1.04915627  4.55890542  4.57953401 l
h  -0.38084242  5.43387686  4.70458356 l
h  -0.87962142  4.07339636  3.59498613 l
cl  -2.73394024  5.06244025  4.71961762 l
cl  -0.73246795  3.38642745  5.87706845 l
c  4.43406696  1.08662807  -4.44581948 l
h  3.87708256  0.27650579  -3.92807056 l
h  5.52868208  0.91239134  -4.37595633 l
cl  4.03867242  2.65338108  -3.70832843 l
cl  3.93657709  1.16979095  -6.13986010 l
c  -5.42549139  1.96892938  -0.38854564 l
h  -6.31993684  1.39978798  -0.06442824 l
h  -4.62763200  1.92934047  0.38326136 l
cl  -5.87773130  3.65403653  -0.68360312 l
cl  -4.82367214  1.29073630  -1.90772336 l
c  -1.59123136  0.98186129  -4.08733596 l
h  -1.91982386  1.29826001  -5.09859357 l
h  -2.14777762  1.52766157  -3.29403294 l
cl  0.14752107  1.30144465  -3.91090749 l
cl  -1.83378175  -0.75887584  -3.89743733 l
c  -1.40784930  5.89368638  0.76010116 l
h  -1.04509403  6.11962699  -0.26618437 l
h  -2.28995947  6.51406981  1.02163599 l
cl  -0.10269880  6.20121113  1.92091253 l
cl  -1.83411883  4.17757270  0.88901957 l
c  1.10991906  0.33133327  4.94218790 l
h  0.73374081  1.33092000  4.63626226 l
h  1.95557082  0.42642334  5.65267079 l
cl  1.63460032  -0.56837163  3.51329144 l
cl  -0.20051588  -0.58259935  5.70563106 l
c  1.06740779  -2.17078809  -3.02793263 l
h  0.18959584  -2.76199179  -3.35570384 l
h  0.75108824  -1.16539380  -2.67209080 l
cl  2.20832422  -2.00511811  -4.36843585 l
cl  1.90495861  -3.03100314  -1.72213831 l
c  1.87094678  3.92697998  -5.95259067 l
h  2.84119329  3.81721586  -6.47941622 l
h  1.77664640  3.16009795  -5.15672075 l
cl  1.76686504  5.54745538  -5.23560477 l
cl  0.53547650  3.76780453  -7.09566369 l
c  -1.52259058  4.62334531  -3.68339784 l
h  -0.54151515  4.21969903  -4.01116164 l
h  -1.53119483  5.73187660  -3.73545562 l
cl  -2.81222130  3.97191905  -4.70283007 l
cl  -1.84619119  4.11158478  -2.01341330 l
c  2.15711704  5.97094553  -1.62406015 l
h  2.77310758  5.93039311  -2.54586982 l
h  2.79692011  5.93505054  -0.71851626 l
cl  1.18505555  7.44709911  -1.62002628 l
cl  1.02274845  4.60569388  -1.60881961 l
c  -4.37739487  6.87882946  -1.68640991 l
h  -5.34947178  6.93658923  -2.21613060 l
h  -4.07591105  5.82020762  -1.53385858 l
cl  -3.14225328  7.72609688  -2.62956176 l
cl  -4.50755890  7.69385130  -0.12236741 l


