%chk=b.chk
%nprocshared=28 
%mem=48gb 
# def2svp wb97xd scrf=(smd,solvent=acetonitrile) g09default scf=(xqc,maxcycle=64) force  guess=read   nosymm

 Title Card 

-1 2
c  -8.93631984  -0.95709341  1.10731275
c  -8.93593799  0.68632681  1.26950263
c  -8.27978697  -2.09163044  0.98478158
c  -6.85075116  -2.91653537  0.90013666
c  -9.61273471  -2.10297595  0.99807090
c  -11.02195551  -2.91803637  0.92804093
c  -10.16788822  1.29439615  1.35075744
n  -11.26155934  1.76856787  1.41630236
c  -7.72052580  1.28914880  1.33119580
n  -6.60453289  1.77338761  1.38309218
c  -5.68593222  -2.14622751  0.94526066
n  -4.75977514  -1.45852576  0.99193122
c  -6.93341019  -4.27625709  0.73242424
n  -7.06300596  -5.45952943  0.59331155
c  -10.95009407  -4.26200188  0.83080902
n  -10.81321775  -5.48453196  0.73825206
c  -12.19233822  -2.14952679  0.98711387
n  -13.12012932  -1.45913348  1.04050916



