%chk=a.chk
%nprocshared=28 
%mem=48gb 
# wb97xd def2svp scrf=(smd,solvent=acetonitrile) g09default scf=(xqc,maxcycle=64) force  guess=read   nosymm

 Title Card 

-2 1
6  -8.94559438  -0.85970648  1.11198053
6  -8.94460199  0.48201535  1.25041402
6  -8.19372587  -2.14561557  0.97964214
6  -7.02361455  -2.81514209  0.89933846
6  -9.67942419  -2.13807543  0.99425564
6  -10.86234212  -2.81477117  0.93810295
6  -10.18164441  1.24916257  1.34327907
7  -11.23315801  1.75102867  1.41028870
6  -7.67710515  1.26987245  1.32551870
7  -6.65367286  1.73187440  1.37668437
6  -5.72946729  -2.12162585  0.95218503
7  -4.78735085  -1.47546338  0.99815190
6  -6.98328218  -4.27812383  0.74075423
7  -7.05755334  -5.40584126  0.61349856
6  -10.91533320  -4.27710130  0.82159211
7  -10.80005400  -5.42684482  0.73307401
6  -12.14278282  -2.12866045  0.99328779
7  -13.09918762  -1.46715975  1.04675676



