%chk=b.chk
%nprocshared=28 
%mem=48gb 
# wb97xd def2svp scrf=(smd,solvent=acetonitrile) g09default scf=(xqc,maxcycle=64) force  guess=read   nosymm

 Title Card 

-1 2
6  -8.93873024  -0.87620691  1.11226393
6  -8.94433124  0.53751021  1.25520143
6  -8.20478766  -2.13445990  0.98127897
6  -6.98602362  -2.83704026  0.89852088
6  -9.68304368  -2.14242780  0.99342451
6  -10.89297409  -2.83427863  0.93629922
6  -10.17293295  1.25047315  1.34270868
7  -11.26197121  1.76662366  1.41390515
6  -7.66702234  1.28110631  1.32735732
7  -6.64565380  1.73435934  1.37788262
6  -5.71851809  -2.12045464  0.95099296
7  -4.76939786  -1.46557344  0.99749971
6  -6.97835940  -4.27828530  0.73931730
7  -7.05780403  -5.43658217  0.60655801
6  -10.91662931  -4.30639834  0.82057447
7  -10.79958011  -5.42689375  0.73646614
6  -12.14913689  -2.12911532  0.99318002
7  -13.12299837  -1.45253423  1.04537357


