%chk=b.chk
%nprocshared=28 
%mem=48gb 
# wb97xd def2svp scrf=(smd,solvent=acetonitrile) g09default scf=(xqc,maxcycle=64) force  guess=read   nosymm

 Title Card 

-1 2
6  -8.93771493  -0.88740385  1.11145878
6  -8.94260319  0.53442543  1.25468886
6  -8.21693839  -2.12763847  0.97993204
6  -6.98812127  -2.83588969  0.89858043
6  -9.67393004  -2.13820450  0.99416297
6  -10.88550855  -2.83230492  0.93659187
6  -10.17035069  1.24613381  1.34286899
7  -11.23841425  1.75242384  1.41075018
6  -7.67373491  1.27075663  1.32572720
7  -6.66646936  1.72690083  1.37625291
6  -5.73426963  -2.12798098  0.95113255
7  -4.78174701  -1.46963529  0.99850155
6  -6.97886756  -4.25790896  0.74255307
7  -7.06072035  -5.42682081  0.61073459
6  -10.91530822  -4.27628370  0.82191100
7  -10.80151695  -5.42436436  0.73339619
6  -12.13842533  -2.13448580  0.99265712
7  -13.10525422  -1.46189718  1.04690467


