%chk=b.chk
%nprocshared=28 
%mem=48gb 
# wb97xd def2svp scrf=(smd,solvent=acetonitrile) g09default scf=(xqc,maxcycle=64) force  guess=read   nosymm

 Title Card 

-1 2
6  -8.93493193  -0.87026787  1.11071430
6  -8.94191377  0.50160912  1.25050766
6  -8.18088434  -2.14284066  0.98195907
6  -7.05739068  -2.80388569  0.90054486
6  -9.70112995  -2.15211717  0.99327200
6  -10.83561854  -2.80849131  0.93890525
6  -10.22288305  1.22951957  1.34123231
7  -11.18214468  1.74629561  1.41182117
6  -7.68824114  1.22812251  1.32137436
7  -6.66284763  1.72808951  1.37896151
6  -5.73619554  -2.09471386  0.95252556
7  -4.80296577  -1.50339857  0.99489344
6  -7.01109969  -4.24966191  0.74372490
7  -7.04294666  -5.41590475  0.60749015
6  -10.88537080  -4.25573296  0.82556030
7  -10.79523751  -5.42552827  0.73957475
6  -12.12167049  -2.10911312  0.99393579
7  -13.10642236  -1.47215794  1.04180755


