%chk=a.chk
%nprocshared=28 
%mem=48gb 
# wb97xd def2svp scrf=(smd,solvent=acetonitrile) g09default scf=(xqc,maxcycle=64) force  guess=read   nosymm

 Title Card 

-2 1
6  -8.93657017  -0.86925299  1.11529388
6  -8.93704213  0.53941955  1.25431190
6  -8.20436792  -2.13669831  0.98370721
6  -6.99040250  -2.84178372  0.89879511
6  -9.68598121  -2.14714230  0.99316748
6  -10.89886256  -2.83384265  0.93667378
6  -10.21645844  1.26605651  1.34365092
7  -11.23960917  1.76975613  1.41787326
6  -7.66987680  1.27724595  1.32935996
7  -6.63378236  1.73816995  1.38086590
6  -5.70126912  -2.10496860  0.94946353
7  -4.76648195  -1.47856068  0.99316286
6  -6.98162380  -4.27543627  0.73568705
7  -7.04776053  -5.45195035  0.59643490
6  -10.91162323  -4.29229443  0.82507054
7  -10.79360939  -5.45880290  0.74310325
6  -12.16034431  -2.11358796  0.99314995
7  -13.13422939  -1.45650512  1.03903324



