%chk=b.chk
%nprocshared=28 
%mem=48gb 
# wb97xd def2svp scrf=(smd,solvent=acetonitrile) g09default scf=(xqc,maxcycle=64) force  guess=read   nosymm

 Title Card 

-1 2
6  -8.93635900  -0.85708863  1.11140051
6  -8.94916606  0.45228441  1.24415667
6  -8.20428685  -2.13410211  0.98268186
6  -7.05951199  -2.79425189  0.90140558
6  -9.67888363  -2.13924505  0.99429303
6  -10.82922155  -2.79914709  0.93996215
6  -10.19439318  1.18860445  1.33628783
7  -11.18532993  1.76211934  1.41415254
6  -7.69447261  1.19997772  1.31829027
7  -6.67793060  1.72444660  1.37935992
6  -5.80105790  -2.10182108  0.95113211
7  -4.78204800  -1.50580220  0.99573082
6  -7.02927142  -4.25363257  0.74442017
7  -7.04031828  -5.37965922  0.61228791
6  -10.85844507  -4.25478548  0.82618624
7  -10.79609089  -5.39717708  0.74205408
6  -12.11200146  -2.09349012  0.99500509
7  -13.08110584  -1.48740763  1.03999816


