%chk=b.chk
%nprocshared=28 
%mem=48gb 
# wb97xd def2svp scrf=(smd,solvent=acetonitrile) g09default scf=(xqc,maxcycle=64) force  guess=read   nosymm

 Title Card 

-1 2
6  -8.93766519  -0.87338431  1.11333983
6  -8.94492390  0.49380462  1.24808098
6  -8.22520075  -2.12667322  0.98207319
6  -7.02536930  -2.81758182  0.90078478
6  -9.66441878  -2.13297938  0.99533031
6  -10.86429278  -2.81584556  0.93915345
6  -10.18607240  1.21286341  1.33913084
7  -11.19153104  1.76308587  1.41609786
6  -7.70503734  1.22311833  1.32265800
7  -6.67480909  1.71912692  1.37984936
6  -5.78089118  -2.12494851  0.94773552
7  -4.77789449  -1.49179510  0.99407392
6  -7.01381269  -4.25656439  0.74003162
7  -7.03485380  -5.38751831  0.60624890
6  -10.87149105  -4.25851787  0.82944224
7  -10.80082001  -5.40291845  0.74606179
6  -12.11770837  -2.11089328  0.99110390
7  -13.09310235  -1.48255683  1.03760837


