%chk=b.chk
%nprocshared=28 
%mem=48gb 
# wb97xd def2svp scrf=(smd,solvent=acetonitrile) g09default scf=(xqc,maxcycle=64) force  guess=read   nosymm

 Title Card 

-1 2
6  -8.93931256  -0.93067927  1.10797751
6  -8.93844214  0.49615747  1.25186208
6  -8.25559566  -2.10879499  0.98086943
6  -7.01317549  -2.81993702  0.89786714
6  -9.62412404  -2.10954830  0.99557820
6  -10.86707195  -2.82241183  0.93687497
6  -10.15590774  1.17875672  1.33579441
7  -11.17869975  1.72821511  1.40253492
6  -7.72000114  1.17904795  1.31796611
7  -6.69666037  1.72886714  1.37242479
6  -5.81032869  -2.10904473  0.95344588
7  -4.82096881  -1.49944394  1.00096524
6  -7.02502350  -4.21045634  0.75025276
7  -7.05646553  -5.36642101  0.62736610
6  -10.85548635  -4.21586692  0.81988476
7  -10.82399899  -5.37471380  0.72716813
6  -12.06979101  -2.11185723  0.99928907
7  -13.05884129  -1.50204703  1.05068354


