%chk=b.chk
%nprocshared=28 
%mem=48gb 
# wb97xd def2svp scrf=(smd,solvent=acetonitrile) g09default scf=(xqc,maxcycle=64) force  guess=read   nosymm

 Title Card 

-1 2
6  -8.94219350  -0.90939964  1.10817211
6  -8.94972926  0.47005013  1.24443893
6  -8.25209048  -2.11164514  0.98414335
6  -7.03751125  -2.81133733  0.90053624
6  -9.64525992  -2.11257799  0.99732478
6  -10.85251225  -2.80999305  0.94054972
6  -10.17438830  1.18171288  1.33578509
7  -11.16979080  1.77439158  1.41901831
6  -7.72322418  1.18371102  1.31969416
7  -6.69006431  1.71618567  1.38133328
6  -5.79994490  -2.11263451  0.94795591
7  -4.80714595  -1.52118497  0.99118520
6  -7.03629631  -4.21966733  0.74337578
7  -7.02483893  -5.37679230  0.60547685
6  -10.84131746  -4.22462225  0.83486919
7  -10.79967049  -5.38652421  0.75128139
6  -12.08880676  -2.10523756  0.99014857
7  -13.07510909  -1.49461259  1.03351609


