%chk=b.chk
%nprocshared=28 
%mem=48gb 
# wb97xd def2svp scrf=(smd,solvent=acetonitrile) g09default scf=(xqc,maxcycle=64) force  guess=read   nosymm

 Title Card 

-1 2
6  -8.94642290  -0.91642562  1.10640636
6  -8.95036236  0.46942003  1.24438280
6  -8.25174846  -2.11394158  0.98500731
6  -7.04459634  -2.80822590  0.90005277
6  -9.64403515  -2.11232100  0.99716787
6  -10.85016294  -2.80726229  0.94105136
6  -10.17418510  1.18020655  1.33621754
7  -11.16760451  1.77873650  1.42023267
6  -7.72066295  1.17298756  1.31971567
7  -6.69461872  1.71680662  1.38198797
6  -5.81016712  -2.11011135  0.94842738
7  -4.80567526  -1.52535608  0.98971056
6  -7.03840904  -4.21849241  0.74170198
7  -7.02398468  -5.37247327  0.60464423
6  -10.83524824  -4.22299848  0.83609334
7  -10.79677397  -5.38180527  0.75436826
6  -12.08136289  -2.10230594  0.99057308
7  -13.07387338  -1.49661556  1.03106379


