%chk=a.chk
%nprocshared=28 
%mem=48gb 
# wb97xd def2svp scrf=(smd,solvent=acetonitrile) g09default scf=(xqc,maxcycle=64) force  guess=read   nosymm

 Title Card 

-2 1
6  -8.94665012  -0.91608559  1.10644554
6  -8.95104775  0.47251982  1.24513626
6  -8.25285774  -2.11375331  0.98546169
6  -7.04251760  -2.81007318  0.89952831
6  -9.64402755  -2.11419953  0.99696139
6  -10.85263350  -2.80998632  0.94093789
6  -10.17420709  1.18814845  1.33765292
7  -11.17009720  1.77859565  1.42051152
6  -7.71823176  1.17530942  1.32059507
7  -6.69318781  1.71781136  1.38232035
6  -5.80853390  -2.11101734  0.94849385
7  -4.80334758  -1.52429254  0.98882865
6  -7.03385777  -4.22086463  0.73990358
7  -7.02467136  -5.37477970  0.60321115
6  -10.83872949  -4.22370214  0.83662697
7  -10.79607858  -5.38425512  0.75581145
6  -12.08289709  -2.10323803  0.99054209
7  -13.07632016  -1.49631480  1.02983624



