%chk=a.chk
%nprocshared=28 
%mem=48gb 
# wb97xd def2svp scrf=(smd,solvent=acetonitrile) g09default scf=(xqc,maxcycle=64) force  guess=read   nosymm

 Title Card 

-2 1
6  -8.95052429  -0.91625948  1.10610855
6  -8.95073234  0.47093118  1.24609817
6  -8.25334659  -2.11513374  0.98522534
6  -7.04623809  -2.80849817  0.89867379
6  -9.64385263  -2.11533118  0.99675811
6  -10.85061703  -2.80908994  0.94145242
6  -10.16929924  1.19364532  1.34008705
7  -11.16951968  1.78003082  1.42104048
6  -7.71764705  1.16884231  1.32099414
7  -6.69575704  1.71859441  1.38313559
6  -5.81208479  -2.10946274  0.94862059
7  -4.80662647  -1.52811514  0.98702695
6  -7.03141142  -4.21887461  0.73726789
7  -7.02562155  -5.37309892  0.60157783
6  -10.83936607  -4.22346283  0.83832163
7  -10.79393409  -5.38205341  0.75929946
6  -12.08029903  -2.10294225  0.99027857
7  -13.07301656  -1.49989909  1.02683838



