%chk=b.chk
%nprocshared=28 
%mem=48gb 
# wb97xd def2svp scrf=(smd,solvent=acetonitrile) g09default scf=(xqc,maxcycle=64) force  guess=read   nosymm

 Title Card 

-1 2
6  -8.95108897  -0.91620987  1.10623352
6  -8.95047384  0.47140434  1.24660818
6  -8.25344305  -2.11511756  0.98507973
6  -7.04611064  -2.80844512  0.89839407
6  -9.64386803  -2.11529841  0.99674909
6  -10.85095760  -2.80952537  0.94152253
6  -10.16851455  1.19512367  1.34066668
7  -11.16978574  1.78010151  1.42112214
6  -7.71709823  1.16872350  1.32123707
7  -6.69540519  1.71901598  1.38332137
6  -5.81214070  -2.10924540  0.94848144
7  -4.80648061  -1.52811580  0.98670613
6  -7.03086205  -4.21893499  0.73665918
7  -7.02597549  -5.37340517  0.60098435
6  -10.84022227  -4.22418662  0.83863946
7  -10.79368735  -5.38269177  0.76001873
6  -12.08046646  -2.10317022  0.99014018
7  -13.07331322  -1.50020016  1.02624108


