%chk=b.chk
%nprocshared=28 
%mem=48gb 
# wb97xd def2svp scrf=(smd,solvent=acetonitrile) g09default scf=(xqc,maxcycle=64) force  guess=read   nosymm

 Title Card 

-1 2
6  -8.93929605  -0.96195756  1.10644196
6  -8.93842960  0.53152583  1.25471100
6  -8.28294687  -2.09260830  0.98121216
6  -6.98280310  -2.83750679  0.89685427
6  -9.59663624  -2.09359206  0.99745356
6  -10.89744162  -2.83988933  0.93561134
6  -10.14620159  1.18693015  1.33679832
7  -11.18004513  1.72556334  1.40275167
6  -7.72970335  1.18729290  1.31829979
7  -6.69529656  1.72621232  1.37272011
6  -5.80799120  -2.12183162  0.95234573
7  -4.82289050  -1.49711370  1.00059522
6  -7.01343887  -4.20610573  0.75011668
7  -7.05930663  -5.36639403  0.62645271
6  -10.86720946  -4.21178248  0.82089439
7  -10.82124278  -5.37476508  0.72796267
6  -12.07210389  -2.12447597  0.99720645
7  -13.05691159  -1.49967991  1.05037701


