%chk=a.chk
%nprocshared=28 
%mem=48gb 
# wb97xd def2svp scrf=(smd,solvent=acetonitrile) g09default scf=(xqc,maxcycle=64) force  guess=read   nosymm

 Title Card 

-2 1
6  -8.95123952  -0.91621991  1.10629389
6  -8.95035394  0.47143083  1.24692892
6  -8.25367245  -2.11489889  0.98499274
6  -7.04629607  -2.80836604  0.89817878
6  -9.64404417  -2.11545915  0.99672302
6  -10.85096560  -2.80977857  0.94157558
6  -10.16815221  1.19562387  1.34100327
7  -11.16959531  1.78012661  1.42116803
6  -7.71661843  1.16830759  1.32137241
7  -6.69534228  1.71924536  1.38343454
6  -5.81251774  -2.10890267  0.94837569
7  -4.80642919  -1.52822452  0.98651892
6  -7.03089746  -4.21888162  0.73630772
7  -7.02621171  -5.37320390  0.60065979
6  -10.84035890  -4.22435151  0.83887185
7  -10.79352283  -5.38299083  0.76049540
6  -12.08026217  -2.10319079  0.99005399
7  -13.07341399  -1.50044333  1.02585037



