%chk=b.chk
%nprocshared=28 
%mem=48gb 
# wb97xd def2svp scrf=(smd,solvent=acetonitrile) g09default scf=(xqc,maxcycle=64) force  guess=read   nosymm

 Title Card 

-1 2
6  -8.95208242  -0.91599770  1.10695016
6  -8.94878829  0.47195761  1.24888678
6  -8.25435387  -2.11423294  0.98407869
6  -7.04669502  -2.80741140  0.89699619
6  -9.64439682  -2.11527722  0.99672059
6  -10.85138025  -2.81109361  0.94182483
6  -10.16561256  1.19693703  1.34268534
7  -11.16858148  1.77947889  1.42115827
6  -7.71493249  1.16788874  1.32215316
7  -6.69420467  1.72020613  1.38386173
6  -5.81320585  -2.10789602  0.94750722
7  -4.80693224  -1.52778798  0.98590809
6  -7.03166075  -4.21784265  0.73491042
7  -7.02782216  -5.37240727  0.59913402
6  -10.84162351  -4.22605433  0.83993857
7  -10.79362511  -5.38465632  0.76248576
6  -12.08044675  -2.10432343  0.98937876
7  -13.07354967  -1.50166495  1.02422633


