%chk=a.chk
%nprocshared=28 
%mem=48gb 
# wb97xd def2svp scrf=(smd,solvent=acetonitrile) g09default scf=(xqc,maxcycle=64) force  guess=read   nosymm

 Title Card 

-2 1
6  -8.95190061  -0.91544815  1.10687827
6  -8.94880395  0.47070108  1.24869532
6  -8.25383944  -2.11450612  0.98410331
6  -7.04779415  -2.80691207  0.89703781
6  -9.64492551  -2.11566810  0.99666677
6  -10.85034142  -2.81052820  0.94183287
6  -10.16596300  1.19615785  1.34251853
7  -11.16820688  1.77919813  1.42104177
6  -7.71476499  1.16743359  1.32201489
7  -6.69462918  1.72006182  1.38376537
6  -5.81348957  -2.10745348  0.94761349
7  -4.80730376  -1.52802019  0.98605074
6  -7.03219965  -4.21769668  0.73515419
7  -7.02794490  -5.37192449  0.59949963
6  -10.84099697  -4.22572837  0.83977869
7  -10.79363837  -5.38414095  0.76220203
6  -12.08013562  -2.10389146  0.98950744
7  -13.07301595  -1.50181164  1.02444381



