%chk=b.chk
%nprocshared=28 
%mem=48gb 
# wb97xd def2svp scrf=(smd,solvent=acetonitrile) g09default scf=(xqc,maxcycle=64) force  guess=read   nosymm

 Title Card 

-1 2
6  -8.95096235  -0.91533973  1.10772697
6  -8.94632895  0.47095215  1.25075210
6  -8.25411341  -2.11382519  0.98319230
6  -7.04753183  -2.80571956  0.89549314
6  -9.64510050  -2.11497618  0.99668791
6  -10.85044966  -2.81151812  0.94181869
6  -10.16479276  1.19369929  1.34338206
7  -11.16732769  1.77627692  1.42048595
6  -7.71275868  1.16927104  1.32303778
7  -6.69186363  1.72095559  1.38349972
6  -5.81322319  -2.10648870  0.94649919
7  -4.80782481  -1.52498523  0.98652744
6  -7.03478946  -4.21649826  0.73472694
7  -7.03128350  -5.37066771  0.59930134
6  -10.84080466  -4.22715767  0.83989709
7  -10.79615526  -5.38582769  0.76234444
6  -12.08099252  -2.10590314  0.98913726
7  -13.07359108  -1.50242524  1.02429459


