%chk=b.chk
%nprocshared=28 
%mem=48gb 
# wb97xd def2svp scrf=(smd,solvent=acetonitrile) g09default scf=(xqc,maxcycle=64) force  guess=read   nosymm

 Title Card 

-1 2
6  -8.95027228  -0.91516255  1.10805584
6  -8.94526441  0.47096876  1.25144673
6  -8.25391743  -2.11366395  0.98288819
6  -7.04733530  -2.80532947  0.89489608
6  -9.64496420  -2.11466732  0.99669775
6  -10.85020356  -2.81167309  0.94173069
6  -10.16438959  1.19246038  1.34358177
7  -11.16736293  1.77432406  1.42008865
6  -7.71205463  1.17009613  1.32338118
7  -6.69079852  1.72124693  1.38320510
6  -5.81296725  -2.10604747  0.94617054
7  -4.80836923  -1.52333676  0.98695361
6  -7.03562241  -4.21605800  0.73471751
7  -7.03321254  -5.37026556  0.59972513
6  -10.84065088  -4.22739331  0.83958983
7  -10.79771639  -5.38611304  0.76180480
6  -12.08123640  -2.10670512  0.98919580
7  -13.07355598  -1.50285805  1.02467571


