%chk=a.chk
%nprocshared=28 
%mem=48gb 
# wb97xd def2svp scrf=(smd,solvent=acetonitrile) g09default scf=(xqc,maxcycle=64) force  guess=read   nosymm

 Title Card 

-2 1
6  -8.93933957  -1.01136424  1.10238665
6  -8.93842642  0.52616075  1.25368670
6  -8.32591000  -2.06760277  0.98343464
6  -6.98779075  -2.83487729  0.89730166
6  -9.55350143  -2.06847854  0.99995949
6  -10.89246570  -2.83700308  0.93595638
6  -10.13325133  1.18560930  1.33694860
7  -11.18060093  1.72470735  1.40248598
6  -7.74268735  1.18598745  1.31779940
7  -6.69470534  1.72532399  1.37274469
6  -5.81507007  -2.13229773  0.95157322
7  -4.82426874  -1.49660752  1.00067649
6  -7.00805257  -4.19365277  0.75119548
7  -7.06033329  -5.36699189  0.62671344
6  -10.87271126  -4.20045134  0.82159947
7  -10.82024542  -5.37450116  0.72777401
6  -12.06502825  -2.13490602  0.99591187
7  -13.05550660  -1.49923249  1.05065687



