%chk=b.chk
%nprocshared=28 
%mem=48gb 
# wb97xd def2svp scrf=(smd,solvent=acetonitrile) g09default scf=(xqc,maxcycle=64) force  guess=read   nosymm

 Title Card 

-1 2
6  -8.94843525  -0.91488108  1.10888716
6  -8.94254745  0.47126433  1.25325303
6  -8.25331329  -2.11322398  0.98216218
6  -7.04651387  -2.80449051  0.89332532
6  -9.64433750  -2.11383466  0.99671876
6  -10.84947157  -2.81202245  0.94145779
6  -10.16330901  1.18960263  1.34413246
7  -11.16796274  1.76872994  1.41899659
6  -7.71001048  1.17195461  1.32424158
7  -6.68804390  1.72217198  1.38238168
6  -5.81249559  -2.10468610  0.94542600
7  -4.80976243  -1.51876183  0.98810714
6  -7.03742941  -4.21512128  0.73460758
7  -7.03876942  -5.36949171  0.60102509
6  -10.84039066  -4.22783617  0.83857377
7  -10.80203157  -5.38673712  0.76013144
6  -12.08149745  -2.10858973  0.98953243
7  -13.07357232  -1.50422429  1.02584490


