%chk=a.chk
%nprocshared=28 
%mem=48gb 
# wb97xd def2svp scrf=(smd,solvent=acetonitrile) g09default scf=(xqc,maxcycle=64) force  guess=read   nosymm

 Title Card 

-2 1
6  -8.93790797  -0.93434238  1.10735135
6  -8.93835622  0.47416907  1.24982215
6  -8.25854004  -2.10618846  0.98192854
6  -7.03203749  -2.80836954  0.89870744
6  -9.62341287  -2.10961704  0.99534412
6  -10.84728045  -2.81088588  0.93772923
6  -10.15647498  1.17283194  1.33511514
7  -11.17919697  1.73062377  1.40256343
6  -7.71988440  1.17281142  1.31757875
7  -6.69589270  1.73141320  1.37242497
6  -5.81539001  -2.10530743  0.95369788
7  -4.81868609  -1.50014627  1.00114142
6  -7.03043514  -4.20840395  0.75058768
7  -7.05464564  -5.36817827  0.62762795
6  -10.84989867  -4.21237366  0.81956138
7  -10.82570359  -5.37741097  0.72654064
6  -12.06468173  -2.10820347  1.00019294
7  -13.06147007  -1.50260010  1.05089001



