%chk=b.chk
%nprocshared=28 
%mem=48gb 
# wb97xd def2svp scrf=(smd,solvent=acetonitrile) g09default scf=(xqc,maxcycle=64) force  guess=read   nosymm

 Title Card 

-1 2
6  -8.93576398  -0.87047105  1.11571089
6  -8.93831796  0.51158280  1.25341843
6  -8.20063922  -2.13771291  0.97922620
6  -6.99850959  -2.82777064  0.89878347
6  -9.68193740  -2.14403350  0.99149237
6  -10.88290446  -2.82963145  0.93558941
6  -10.17539487  1.19369250  1.33616947
7  -11.21306794  1.74677340  1.40659739
6  -7.69617214  1.19670211  1.32146278
7  -6.66657127  1.74518804  1.37437948
6  -5.78591572  -2.09638026  0.95282323
7  -4.78824069  -1.47942728  1.00094366
6  -7.02317800  -4.23047355  0.74645652
7  -7.05735249  -5.41044756  0.61866058
6  -10.85531173  -4.25643627  0.81737335
7  -10.82318076  -5.40200180  0.72815074
6  -12.09718755  -2.09651520  1.00189810
7  -13.09024945  -1.48281554  1.04966886


