%chk=b.chk
%nprocshared=56 
%mem=96gb 
# def2svp wb97xd scrf=(smd,solvent=acetonitrile) g09default scf=(xqc,maxcycle=64) force  guess=read   nosymm

 Title Card 

-1 1
17  -9.72415923  8.28527800  10.54292012
6  -8.40711166  4.30759153  12.19671024
6  -9.22545794  3.98896177  11.09643016
6  -10.12247886  2.91235626  11.22971108
6  -10.20965191  2.19393949  12.41893998
6  -9.39242163  2.52594044  13.50050846
6  -8.48867027  3.58409409  13.38152582
1  -7.69859337  5.13541588  12.12738719
1  -10.76630991  2.64534933  10.38668687
1  -10.92095013  1.36876669  12.50506926
1  -9.44915848  1.95538250  14.42982461
1  -7.84536431  3.85325440  14.22288791
6  -9.18757859  4.75028461  9.84550962
6  -8.44528523  5.85385685  9.61746030
1  -9.84629017  4.38533803  9.04934447
1  -8.46586899  6.35531009  8.64949938
1  -7.73617400  6.24356124  10.34871575
8  -0.97229171  -1.83092799  7.44878534
8  -8.37081306  -1.31763763  7.45790801
8  -7.00353532  1.32552370  10.49607338
8  -2.32164007  -4.40171254  10.55639863
74  -3.36719110  0.71782368  6.51632166
74  -6.00004510  -3.85138604  6.58338870
74  -3.57144171  0.88152493  11.39006312
74  -5.77031800  -3.90355781  11.45783972
74  -2.45304219  -2.58754545  6.36530261
74  -6.89189543  -0.54804357  6.34280900
74  -6.76911678  -0.27414002  11.60138111
74  -2.55901108  -2.74603676  11.62965802
8  -3.11839277  1.91747036  5.35548046
8  -6.14757970  -5.10213480  5.44337146
8  -2.64448853  1.72705791  12.53597913
8  -6.68018662  -4.72285210  12.63369385
8  -2.65553757  -0.90525721  5.58725881
8  -6.68546487  -2.28298391  5.62322204
8  -5.26336800  0.53617020  12.36541422
8  -4.05541400  -3.55469989  12.40690296
8  0.35415556  -0.09827742  9.26507644
8  -9.70037665  -2.98897948  9.31936113
8  -6.38532483  3.40552888  8.68647935
8  -2.96298621  -6.49365522  8.74486478
8  -1.74944724  0.72740362  7.49046813
8  -7.60242186  -3.87921522  7.55443380
8  -4.47650939  2.19137030  10.42357352
8  -4.85962931  -5.24721858  10.51140787
8  -1.63126711  -3.52087428  5.20631343
8  -7.76304460  0.25658252  5.14147391
8  -7.98053834  -0.17366961  12.78692643
8  -1.32908834  -2.87605984  12.79511447
74  -1.21320179  -0.59638967  8.83660707
74  -8.13360078  -2.50141643  8.87546440
74  -5.89236172  1.83660396  9.05508392
74  -3.45481581  -4.92014172  9.15755747
8  -4.22124377  -3.12469260  6.06408048
8  -5.12036846  -0.05310506  6.01843447
8  -6.15770326  -2.02800463  11.92325605
8  -3.14994351  -0.99564088  11.92344228
8  -4.33824474  1.58087611  7.85367636
8  -4.99859570  -4.70430654  7.92113440
8  -2.28390037  0.54638931  10.07353518
8  -7.05388960  -3.62302546  10.13003335
8  -2.56542395  -3.91637002  7.85006782
8  -6.79294898  0.78153514  7.80171328
8  -7.80520584  -1.17753905  10.16044339
8  -1.53861673  -1.89889274  10.14935209
8  -3.34223776  -1.17020710  8.01292951
8  -6.00198683  -1.96881515  8.03731687
8  -5.09213640  -0.22200620  9.94822293
8  -4.22903856  -2.85844323  9.97514075
19  -3.22716688  -6.15402105  5.64823872
19  -0.11714931  -0.04162993  12.32691629
19  -9.30179774  -2.82278307  12.39070697
23  -4.66842322  -1.55065490  8.99064721

-c -h -mn -co -ag -ni -ni 0
def2svp
****
-n -o -f -cl 0
6-31+g(d)
****
-ce 0
sdd
****

-ce 0
sdd



