%chk=b.chk
%nprocshared=56
%mem=96GB
# wb97xd nosymm geom=modredundant guess=fragment=2 def2svp g09default
scf=(xqc,maxcycle=64)

Title Card

-1 1 -1 2 0 -2
 Cl(Fragment=2)   -10.55490575    8.58580054   10.58171048
 C(Fragment=2)     -9.06732688    5.06981507   12.52834553
 C(Fragment=2)     -9.79935216    4.65375132   11.39825396
 C(Fragment=2)    -10.66340403    3.55273254   11.55512963
 C(Fragment=2)    -10.79716090    2.90131032   12.77958708
 C(Fragment=2)    -10.06511303    3.32999309   13.88780819
 C(Fragment=2)     -9.19869695    4.41673646   13.75161520
 H(Fragment=2)     -8.38362340    5.91853291   12.45267287
 H(Fragment=2)    -11.24205800    3.20586716   10.69478901
 H(Fragment=2)    -11.47879969    2.05180820   12.86886954
 H(Fragment=2)    -10.16902478    2.82254449   14.84955191
 H(Fragment=2)     -8.61908391    4.76401098   14.61068382
 C(Fragment=2)     -9.73025292    5.34113342   10.10193368
 C(Fragment=2)     -9.12625353    6.52969271    9.88073016
 H(Fragment=2)    -10.35727267    4.91465024    9.31113594
 H(Fragment=2)     -9.09724771    6.93397218    8.86805114
 H(Fragment=2)     -8.38778973    6.93176585   10.57455431
 O(Fragment=1)     -0.67304072   -2.07415447    7.25481812
 O(Fragment=1)     -8.28357972   -1.40973747    7.34814012
 O(Fragment=1)     -6.81808272    1.25642753   10.50490612
 O(Fragment=1)     -2.10824772   -4.75241847   10.48016112
 W(Fragment=1)     -3.10474572    0.46438353    6.53787012
 W(Fragment=1)     -5.93295072   -3.99965347    6.57883912
 W(Fragment=1)     -3.35783172    0.65294153   11.22365612
 W(Fragment=1)     -5.55610672   -4.14574747   11.26644412
 W(Fragment=1)     -2.37529272   -2.74611547    6.25607312
 W(Fragment=1)     -6.64927272   -0.81036047    6.28848112
 W(Fragment=1)     -6.42312172   -0.46911347   11.54896212
 W(Fragment=1)     -2.48066472   -3.03309847   11.53113612
 O(Fragment=1)     -2.98959872    1.64654853    5.29338912
 O(Fragment=1)     -6.02754772   -5.22994647    5.38002512
 O(Fragment=1)     -2.34979672    1.38428153   12.41068612
 O(Fragment=1)     -6.52064672   -4.87995147   12.48652812
 O(Fragment=1)     -2.37895472   -1.10176247    5.37274212
 O(Fragment=1)     -6.59854272   -2.44720547    5.42258412
 O(Fragment=1)     -5.00054872    0.37473953   12.39494012
 O(Fragment=1)     -3.87779872   -3.86541647   12.41217012
 O(Fragment=1)      0.51143728   -0.39555247    9.14740112
 O(Fragment=1)     -9.46533572   -3.07861047    9.28595812
 O(Fragment=1)     -6.07721572    3.16145453    8.56990812
 O(Fragment=1)     -2.88662972   -6.66338747    8.56547212
 O(Fragment=1)     -1.40428272    0.53923353    7.30711912
 O(Fragment=1)     -7.57211572   -4.07929147    7.42972712
 O(Fragment=1)     -4.18344672    2.08789953   10.39313212
 O(Fragment=1)     -4.73817872   -5.58412247   10.42373812
 O(Fragment=1)     -1.51260972   -3.74757747    5.15339912
 O(Fragment=1)     -7.46467372    0.21961653    5.17743612
 O(Fragment=1)     -7.71461272   -0.32479447   12.67534712
 O(Fragment=1)     -1.16218072   -3.15911047   12.62948912
 W(Fragment=1)     -1.05229372   -0.96071447    8.70299912
 W(Fragment=1)     -7.91301672   -2.55543047    8.76257012
 W(Fragment=1)     -5.67395672    1.57083553    9.08856212
 W(Fragment=1)     -3.28630272   -5.07377047    9.08816112
 O(Fragment=1)     -4.10242672   -3.27184647    5.95171112
 O(Fragment=1)     -4.89489472   -0.29569247    5.98364912
 O(Fragment=1)     -5.92024872   -2.21639847   11.84293612
 O(Fragment=1)     -2.96820972   -1.27702647   11.80009412
 O(Fragment=1)     -4.06306372    1.36235653    7.81277112
 O(Fragment=1)     -4.90140472   -4.85133847    7.84599312
 O(Fragment=1)     -2.10246372    0.27476553    9.91532412
 O(Fragment=1)     -6.84328072   -3.78213747    9.99879712
 O(Fragment=1)     -2.43247472   -4.07804247    7.77909612
 O(Fragment=1)     -6.52873672    0.57874053    7.79124212
 O(Fragment=1)     -7.53949272   -1.28927047   10.04767212
 O(Fragment=1)     -1.36747672   -2.21940747    9.99578312
 O(Fragment=1)     -2.99260172   -1.32375747    7.77966412
 O(Fragment=1)     -5.97549972   -2.20660247    7.81858612
 O(Fragment=1)     -4.90854472   -0.25858747    9.99253012
 O(Fragment=1)     -4.02265172   -3.23803447   10.00707612
 K(Fragment=1)     -3.22808472   -6.21356447    5.64912512
 K(Fragment=1)     -0.03852772   -0.44343747   12.16300412
 K(Fragment=1)     -8.87239872   -3.04750447   12.23061112
 V(Fragment=1)     -4.47713672   -1.75705647    8.90181312

B 1 14 F

