%chk=b.chk
%nprocshared=56 
%mem=96gb 
# pbe1pbe em=gd3bj def2sv g09default scf=(xqc,maxcycle=64) force  guess=read   nosymm

 Title Card 

0 3
6  0.00000363  0.63056954  -0.06672986
6  -1.21196880  1.35334730  -0.01718262
6  -1.22004529  2.74428987  0.00040243
6  0.00000191  3.43013887  -0.00064632
6  1.22004857  2.74428922  0.00051225
6  1.21197329  1.35334644  -0.01709555
1  -2.15919161  3.29930053  0.01345460
1  0.00000228  4.52305274  0.00094447
1  2.15919344  3.29929950  0.01367023
6  3.65489972  0.58424696  0.00422897
6  1.86709354  -0.85499430  0.02546383
6  4.14227083  -0.74275487  -0.01099527
6  4.53197969  1.66455407  0.00224780
6  5.50725087  -1.01369385  -0.00710843
6  5.90479826  1.38878360  -0.00144960
1  4.17416402  2.69396121  0.00487853
6  6.38442117  0.07755822  -0.00079273
1  5.88547426  -2.03860639  -0.00528091
1  6.61273860  2.22225460  -0.00183557
1  7.46337734  -0.10152636  0.00287053
6  -3.65489756  0.58424462  0.00415213
6  -1.86708885  -0.85499265  0.02538275
6  -4.14226703  -0.74275898  -0.01100807
6  -4.53198088  1.66454973  0.00219638
6  -5.50724582  -1.01370093  -0.00699297
6  -5.90479888  1.38877561  -0.00137816
1  -4.17416781  2.69395788  0.00476940
6  -6.38441858  0.07754902  -0.00063006
1  -5.88546703  -2.03861429  -0.00508013
1  -6.61274146  2.22224480  -0.00172475
1  -7.46337392  -0.10153796  0.00315494
7  -2.28018364  0.47048707  0.02185672
7  -3.04187018  -1.58010277  -0.01368950
7  2.28018621  0.47048678  0.02198463
7  3.04187649  -1.58010120  -0.01363692
6  3.12914421  -3.00967634  -0.00142860
1  3.65447388  -3.38736652  -0.89787239
1  3.66527641  -3.37252878  0.89578307
1  2.11401650  -3.43336680  0.01250349
6  -3.12913110  -3.00967794  -0.00140823
1  -3.66515150  -3.37249962  0.89588324
1  -3.65456761  -3.38740343  -0.89777364
1  -2.11400022  -3.43336385  0.01240939
27  0.00000165  -1.09794145  0.01133254

-c -h -mn -co -ag -ni -ni 0
def2svp
****
-n -o -f -cl 0
6-31+g(d)
****
-ce 0
sdd
****

-ce 0
sdd



