%chk=a.chk
%nprocshared=56 
%mem=96gb 
# def2svp wb97xd scrf=(smd,solvent=acetonitrile) g09default scf=(xqc,maxcycle=64) force  guess=read   nosymm

 Title Card 

-1 1
17  -9.93988124  7.74633591  10.42573807
6  -8.31261102  4.24731506  12.23847567
6  -9.06173062  3.92125614  11.09425243
6  -10.00674735  2.88725374  11.20004609
6  -10.18789667  2.19307073  12.39232679
6  -9.42860219  2.52065821  13.51607827
6  -8.49064380  3.55155529  13.43087929
1  -7.57758292  5.05517667  12.19932017
1  -10.59783164  2.62544514  10.31892872
1  -10.91448793  1.37942425  12.43629489
1  -9.55790562  1.96688920  14.44910590
1  -7.88514910  3.81072735  14.30368438
6  -8.91277050  4.61413528  9.81268158
6  -8.07961829  5.63855540  9.56478735
1  -9.60355613  4.30301729  9.02263340
1  -8.06065562  6.12380783  8.58843187
1  -7.38735973  6.03036404  10.31162826
8  -1.01745227  -1.76293555  7.46198889
8  -8.40258806  -1.32534000  7.46599245
8  -7.05847623  1.33459608  10.49056434
8  -2.33920268  -4.34260804  10.56111698
74  -3.43391976  0.74831105  6.50564286
74  -6.00943491  -3.82454941  6.58913551
74  -3.63615500  0.91625388  11.40046175
74  -5.77678993  -3.86482590  11.46726371
74  -2.46957283  -2.54720932  6.37879441
74  -6.95169361  -0.52822266  6.34986261
74  -6.83279333  -0.25425642  11.59717631
74  -2.57023538  -2.69103779  11.62803388
8  -3.20751321  1.95489112  5.34719320
8  -6.13671825  -5.08941306  5.46073729
8  -2.70263950  1.76960208  12.53721891
8  -6.70279962  -4.67935518  12.63881933
8  -2.69805595  -0.86481682  5.60159107
8  -6.71661054  -2.26797453  5.64206608
8  -5.32321311  0.56489686  12.35786862
8  -4.06867014  -3.50924129  12.40257192
8  0.29854972  -0.00717899  9.28511970
8  -9.72140205  -3.01173571  9.34597521
8  -6.42049103  3.41656129  8.63546112
8  -2.96150984  -6.44925715  8.73707103
8  -1.81788670  0.77636813  7.49122446
8  -7.61013114  -3.86724960  7.56654344
8  -4.54812355  2.21409257  10.42099580
8  -4.86083750  -5.20441431  10.51892096
8  -1.65096937  -3.47968701  5.21723194
8  -7.81778256  0.27200366  5.14271514
8  -8.03808560  -0.18675988  12.79130588
8  -1.34025234  -2.79021057  12.79872822
74  -1.26196898  -0.51727390  8.84577435
74  -8.16379591  -2.50926883  8.88728634
74  -5.94443185  1.85615286  9.04680337
74  -3.46643624  -4.88171798  9.16256686
8  -4.24130583  -3.08668276  6.08118752
8  -5.17449402  -0.03846551  6.02761123
8  -6.18087158  -1.99761261  11.91377494
8  -3.19831658  -0.95117397  11.91914088
8  -4.40220613  1.59788680  7.85610479
8  -5.00341184  -4.66135827  7.93980716
8  -2.34951064  0.59209413  10.07036812
8  -7.06181049  -3.59918862  10.13018234
8  -2.57593646  -3.86449896  7.86184868
8  -6.85450716  0.78598234  7.80511841
8  -7.84582354  -1.16740469  10.16051916
8  -1.57502671  -1.84022823  10.15063930
8  -3.39546640  -1.12274526  8.01685298
8  -6.02456971  -1.95591556  8.04648180
8  -5.12744978  -0.20115252  9.95182908
8  -4.26167458  -2.81655714  9.98074139
19  -3.23925581  -6.09615125  5.68267511
19  -0.17216634  0.02875397  12.33272167
19  -9.24504514  -2.92590593  12.38907270
23  -4.70480963  -1.52026220  8.99608366

-c -h -mn -co -ag -ni -ni 0
def2svp
****
-n -o -f -cl 0
6-31+g(d)
****
-ce 0
sdd
****

-ce 0
sdd



