%chk=a.chk
%nprocshared=56 
%mem=96gb 
# def2svp wb97xd scrf=(smd,solvent=acetonitrile) g09default scf=(xqc,maxcycle=64) force  guess=read   nosymm

 Title Card 

-1 1
17  -9.97102593  7.84097783  10.45141355
6  -8.30790968  4.24145625  12.23581883
6  -9.06093384  3.91493097  11.09230381
6  -10.00422434  2.87830056  11.19923112
6  -10.18904697  2.18994324  12.39369072
6  -9.43024065  2.52122429  13.51684336
6  -8.48963694  3.55032694  13.43097046
1  -7.57657235  5.05126293  12.19857300
1  -10.60074747  2.61711332  10.32062139
1  -10.92058499  1.37954685  12.44245338
1  -9.55748926  1.96862356  14.45071334
1  -7.88851673  3.81510117  14.30463764
6  -8.92273774  4.61991113  9.81565828
6  -8.09654480  5.64960461  9.56595104
1  -9.59126396  4.28156466  9.01572087
1  -8.06238482  6.11758288  8.58027106
1  -7.38602280  6.02037590  10.30878194
8  -1.01349877  -1.76555664  7.46340328
8  -8.40734310  -1.32269237  7.46796736
8  -7.06095617  1.33897470  10.48649336
8  -2.33361056  -4.34550383  10.55890855
74  -3.42953244  0.74351510  6.50015963
74  -6.01024311  -3.82350086  6.58687664
74  -3.63628999  0.91473728  11.40481372
74  -5.77660418  -3.86630343  11.46962536
74  -2.47039893  -2.54558140  6.38156650
74  -6.94938483  -0.53221125  6.35088337
74  -6.82970770  -0.25270547  11.59430143
74  -2.57178195  -2.69317896  11.62761014
8  -3.20446231  1.94984902  5.34251104
8  -6.13944481  -5.08421611  5.45713992
8  -2.70760745  1.76947919  12.54115383
8  -6.69768759  -4.68048284  12.64113807
8  -2.69956226  -0.86629536  5.58925943
8  -6.71618291  -2.26821268  5.62956232
8  -5.32359889  0.56287406  12.36903396
8  -4.06814089  -3.50776579  12.41266311
8  0.29468947  -0.00685720  9.27901919
8  -9.71769308  -3.01148358  9.33802674
8  -6.40199418  3.41430513  8.62846473
8  -2.96283874  -6.44668862  8.74262076
8  -1.81422755  0.78592113  7.48822139
8  -7.61153207  -3.87771284  7.56430431
8  -4.53773238  2.21893836  10.42292696
8  -4.86732145  -5.21361284  10.52062879
8  -1.64740270  -3.47434739  5.22071732
8  -7.82066797  0.26917312  5.14792012
8  -8.03615682  -0.18176520  12.78569504
8  -1.34186778  -2.79673077  12.79537353
74  -1.26733126  -0.51526133  8.84482895
74  -8.15808995  -2.51048510  8.88495334
74  -5.93443808  1.85236286  9.04532341
74  -3.47049562  -4.88077953  9.16389072
8  -4.23835153  -3.09362365  6.07305214
8  -5.17852899  -0.02939463  6.01694366
8  -6.18895734  -2.00061424  11.92271225
8  -3.18799021  -0.94921465  11.92838004
8  -4.39758455  1.60050834  7.84780323
8  -5.00335043  -4.67295026  7.93069648
8  -2.34134046  0.59914022  10.07884853
8  -7.06902109  -3.60655839  10.13885492
8  -2.57876085  -3.87012778  7.85816486
8  -6.84928538  0.78922684  7.80252479
8  -7.84775492  -1.17249728  10.16339237
8  -1.57240935  -1.83543966  10.15397745
8  -3.38871815  -1.12586560  8.01535930
8  -6.03146933  -1.95434893  8.04532297
8  -5.13370380  -0.19847473  9.95382628
8  -4.25559379  -2.82123082  9.98148951
19  -3.23567534  -6.11091600  5.67182220
19  -0.15848470  0.03530204  12.34343782
19  -9.26025208  -2.92873743  12.40211120
23  -4.70452342  -1.52063807  8.99551787

-c -h -mn -co -ag -ni -ni 0
def2svp
****
-n -o -f -cl 0
6-31+g(d)
****
-ce 0
sdd
****

-ce 0
sdd



