%chk=b.chk
%nprocshared=56 
%mem=96gb 
# def2svp wb97xd scrf=(smd,solvent=acetonitrile) g09default scf=(xqc,maxcycle=64) force  guess=read   nosymm

 Title Card 

-1 1
17  -9.97836497  7.87555059  10.46124637
6  -8.30737817  4.23962462  12.23457878
6  -9.06362448  3.91516904  11.09322237
6  -10.00397723  2.87519738  11.19800283
6  -10.18825926  2.18727462  12.39345964
6  -9.42980353  2.52094182  13.51589342
6  -8.48830775  3.54887602  13.42960994
1  -7.57480942  5.04903579  12.19702095
1  -10.60163572  2.61201471  10.32080620
1  -10.92309683  1.38015432  12.44605041
1  -9.55853819  1.97127106  14.45114799
1  -7.89038142  3.81694884  14.30466033
6  -8.92992503  4.62377788  9.81821373
6  -8.10722658  5.65784751  9.56916214
1  -9.58648002  4.27270129  9.01491255
1  -8.06395654  6.11441030  8.57863049
1  -7.38745492  6.02031981  10.30629803
8  -1.01156454  -1.76443464  7.46157696
8  -8.40990582  -1.32363393  7.46674381
8  -7.05979056  1.34148447  10.48700719
8  -2.33249469  -4.34836837  10.55983015
74  -3.42641977  0.74321973  6.49741404
74  -6.01148352  -3.82605926  6.58532388
74  -3.63459438  0.91644197  11.40704666
74  -5.77805180  -3.86809996  11.47124572
74  -2.47058706  -2.54590258  6.38075857
74  -6.94780306  -0.53387654  6.34954136
74  -6.82842070  -0.25176975  11.59442929
74  -2.57228259  -2.69387018  11.62891539
8  -3.20135494  1.94724540  5.33723213
8  -6.14206090  -5.08289439  5.45180032
8  -2.70988081  1.77074202  12.54703122
8  -6.69474995  -4.68291655  12.64555707
8  -2.69868264  -0.86680753  5.58586160
8  -6.71672987  -2.26937934  5.62706991
8  -5.32348720  0.56385863  12.37079892
8  -4.06754326  -3.50894069  12.41422674
8  0.29491494  -0.00474551  9.27568862
8  -9.71771055  -3.01341178  9.33368139
8  -6.39600955  3.41555434  8.62937669
8  -2.96397046  -6.44817105  8.74567216
8  -1.81179098  0.78620094  7.48598875
8  -7.61252827  -3.87893856  7.56245852
8  -4.53533301  2.22009418  10.42450499
8  -4.86724941  -5.21510311  10.52220196
8  -1.64286976  -3.47309752  5.22228934
8  -7.82444454  0.26745980  5.15117788
8  -8.03735959  -0.17666274  12.78280436
8  -1.34068976  -2.80245493  12.79388738
74  -1.26690402  -0.51583090  8.84408641
74  -8.15849691  -2.50986133  8.88360838
74  -5.93229384  1.85192344  9.04506650
74  -3.47002912  -4.88172414  9.16518836
8  -4.23791471  -3.09326391  6.07170658
8  -5.17838997  -0.02882873  6.01404539
8  -6.18913264  -2.00072519  11.92377343
8  -3.18690844  -0.94975091  11.93085203
8  -4.39388682  1.59757858  7.84709513
8  -5.00491855  -4.67453912  7.92839796
8  -2.34133000  0.60094385  10.08072843
8  -7.06854313  -3.60916349  10.14043386
8  -2.58009119  -3.87111859  7.85850278
8  -6.84618542  0.78867640  7.80278525
8  -7.84673044  -1.17371581  10.16253339
8  -1.57325014  -1.83425254  10.15357504
8  -3.38719810  -1.12831416  8.01605934
8  -6.03273294  -1.95181648  8.04500446
8  -5.13669129  -0.19853835  9.95216729
8  -4.25290120  -2.82173344  9.98007855
19  -3.23436153  -6.11633621  5.66788896
19  -0.15335332  0.03799497  12.34747738
19  -9.26586067  -2.92894183  12.40743679
23  -4.70452458  -1.52094931  8.99532718

-c -h -mn -co -ag -ni -ni 0
def2svp
****
-n -o -f -cl 0
6-31+g(d)
****
-ce 0
sdd
****

-ce 0
sdd



