%chk=a.chk
%nprocshared=56 
%mem=96gb 
# def2svp wb97xd scrf=(smd,solvent=acetonitrile) g09default scf=(xqc,maxcycle=64) force  guess=read   nosymm

 Title Card 

-1 1
17  -9.98233167  7.90412551  10.46931092
6  -8.30758439  4.23875903  12.23394680
6  -9.06652751  3.91556070  11.09382384
6  -10.00465042  2.87286358  11.19753184
6  -10.18767645  2.18509896  12.39323118
6  -9.42899513  2.52029558  13.51531609
6  -8.48727256  3.54789033  13.42835306
1  -7.57340086  5.04674805  12.19502431
1  -10.60187398  2.60766787  10.32081163
1  -10.92457914  1.38058087  12.44896679
1  -9.56000131  1.97395544  14.45165269
1  -7.89167795  3.81799447  14.30428581
6  -8.93534530  4.62650946  9.82057057
6  -8.11512067  5.66251245  9.57088078
1  -9.58406276  4.26652730  9.01462335
1  -8.06701595  6.11278431  8.57809039
1  -7.39125415  6.02363523  10.30501497
8  -1.01062996  -1.76304176  7.45979454
8  -8.41111815  -1.32503393  7.46529731
8  -7.05761884  1.34313174  10.48771680
8  -2.33248372  -4.35055896  10.56077144
74  -3.42425306  0.74268802  6.49518412
74  -6.01205082  -3.82804407  6.58416984
74  -3.63305893  0.91754236  11.40874968
74  -5.77922318  -3.86902700  11.47230624
74  -2.47056645  -2.54668557  6.38028229
74  -6.94631630  -0.53509647  6.34897751
74  -6.82754459  -0.25106030  11.59410209
74  -2.57261674  -2.69434554  11.62958230
8  -3.19821364  1.94485619  5.33243381
8  -6.14454362  -5.08226182  5.44658697
8  -2.71176257  1.77185060  12.55254356
8  -6.69213715  -4.68513668  12.64966474
8  -2.69748835  -0.86734591  5.58476345
8  -6.71723838  -2.27028410  5.62674046
8  -5.32319211  0.56486723  12.37049217
8  -4.06691797  -3.51029470  12.41391586
8  0.29538919  -0.00275887  9.27310116
8  -9.71810996  -3.01538835  9.33024499
8  -6.39191507  3.41683733  8.63155291
8  -2.96506513  -6.45024958  8.74822698
8  -1.81014925  0.78475572  7.48391601
8  -7.61292841  -3.87851015  7.56081448
8  -4.53429320  2.22008162  10.42587990
8  -4.86622180  -5.21484530  10.52346426
8  -1.63873309  -3.47274438  5.22370654
8  -7.82805788  0.26604846  5.15371173
8  -8.03861506  -0.17197165  12.78020443
8  -1.33930288  -2.80786041  12.79266572
74  -1.26607750  -0.51633440  8.84348533
74  -8.15922711  -2.50960018  8.88239594
74  -5.93027879  1.85163600  9.04498218
74  -3.46955865  -4.88238480  9.16640021
8  -4.23800612  -3.09244377  6.07109194
8  -5.17741984  -0.02941664  6.01208134
8  -6.18826899  -2.00058512  11.92386525
8  -3.18689428  -0.95026189  11.93239558
8  -4.39076775  1.59437011  7.84752166
8  -5.00621721  -4.67501976  7.92724007
8  -2.34175349  0.60168761  10.08148582
8  -7.06771851  -3.61072668  10.14076496
8  -2.58075937  -3.87143994  7.85903124
8  -6.84384328  0.78762581  7.80322266
8  -7.84558717  -1.17417268  10.16139412
8  -1.57420911  -1.83407208  10.15280952
8  -3.38599000  -1.12962450  8.01580118
8  -6.03344995  -1.95049933  8.04383465
8  -5.13786206  -0.19821241  9.95141676
8  -4.25152172  -2.82238882  9.97951930
19  -3.23322206  -6.12050041  5.66490175
19  -0.14920662  0.04021896  12.35052068
19  -9.27015795  -2.92858444  12.41167204
23  -4.70443321  -1.52130253  8.99504455

-c -h -mn -co -ag -ni -ni 0
def2svp
****
-n -o -f -cl 0
6-31+g(d)
****
-ce 0
sdd
****

-ce 0
sdd



