%chk=b.chk
%nprocshared=56 
%mem=96gb 
# def2svp wb97xd scrf=(smd,solvent=acetonitrile) g09default scf=(xqc,maxcycle=64) force  guess=read   nosymm

 Title Card 

-1 1
17  -9.98292302  7.91529854  10.47242609
6  -8.30791176  4.23872216  12.23346773
6  -9.06799811  3.91552562  11.09437716
6  -10.00498198  2.87218092  11.19781000
6  -10.18726550  2.18463041  12.39323949
6  -9.42872900  2.52004271  13.51487181
6  -8.48701728  3.54746969  13.42812795
1  -7.57293083  5.04570961  12.19397718
1  -10.60190491  2.60591919  10.32061901
1  -10.92505675  1.38042840  12.45005838
1  -9.56076644  1.97506155  14.45208120
1  -7.89197927  3.81819141  14.30398095
6  -8.93722815  4.62739112  9.82110307
6  -8.11777292  5.66353300  9.57149814
1  -9.58375994  4.26471337  9.01477479
1  -8.06905084  6.11265810  8.57792329
1  -7.39401927  6.02630534  10.30483370
8  -1.01035257  -1.76250092  7.45912076
8  -8.41136065  -1.32571119  7.46467564
8  -7.05651463  1.34364047  10.48799431
8  -2.33264972  -4.35134949  10.56112238
74  -3.42357865  0.74220446  6.49431807
74  -6.01210360  -3.82878380  6.58356764
74  -3.63236796  0.91787369  11.40953214
74  -5.77956414  -3.86915297  11.47262650
74  -2.47052996  -2.54704365  6.38043279
74  -6.94562947  -0.53565098  6.34925824
74  -6.82726982  -0.25081538  11.59366674
74  -2.57278601  -2.69455932  11.62950249
8  -3.19684496  1.94363347  5.33070023
8  -6.14550406  -5.08180517  5.44474380
8  -2.71271009  1.77196632  12.55445098
8  -6.69092381  -4.68580178  12.65105943
8  -2.69682291  -0.86766071  5.58478636
8  -6.71745443  -2.27056029  5.62700571
8  -5.32304127  0.56527330  12.36993846
8  -4.06660635  -3.51091812  12.41340742
8  0.29573951  -0.00193547  9.27226335
8  -9.71864647  -3.01633329  9.32912493
8  -6.39057012  3.41711829  8.63298518
8  -2.96563796  -6.45108207  8.74928506
8  -1.80956141  0.78380283  7.48307293
8  -7.61302941  -3.87805148  7.56016559
8  -4.53408595  2.21988299  10.42645193
8  -4.86563055  -5.21442289  10.52390697
8  -1.63712380  -3.47290000  5.22434940
8  -7.82953050  0.26551041  5.15460180
8  -8.03900096  -0.17010215  12.77898202
8  -1.33874518  -2.81011468  12.79209999
74  -1.26604924  -0.51659358  8.84309761
74  -8.15895327  -2.50948814  8.88167516
74  -5.92931062  1.85158465  9.04499286
74  -3.46945075  -4.88262936  9.16689647
8  -4.23810848  -3.09209687  6.07091699
8  -5.17681172  -0.02993837  6.01139682
8  -6.18766336  -2.00045815  11.92372076
8  -3.18703998  -0.95047486  11.93288058
8  -4.38958825  1.59301730  7.84794283
8  -5.00662612  -4.67504382  7.92702868
8  -2.34189453  0.60171860  10.08153011
8  -7.06743636  -3.61111128  10.14060693
8  -2.58080702  -3.87146775  7.85926934
8  -6.84304957  0.78710127  7.80345685
8  -7.84515370  -1.17417700  10.16082237
8  -1.57455083  -1.83431473  10.15238470
8  -3.38546264  -1.12989905  8.01535966
8  -6.03362048  -1.95030014  8.04309983
8  -5.13781894  -0.19788849  9.95144745
8  -4.25123527  -2.82278878  9.97957788
19  -3.23274993  -6.12199792  5.66382715
19  -0.14760457  0.04109131  12.35157877
19  -9.27168590  -2.92820379  12.41324146
23  -4.70437266  -1.52148160  8.99475761

-c -h -mn -co -ag -ni -ni 0
def2svp
****
-n -o -f -cl 0
6-31+g(d)
****
-ce 0
sdd
****

-ce 0
sdd



