%chk=a.chk
%nprocshared=56 
%mem=96gb 
# def2svp wb97xd scrf=(smd,solvent=acetonitrile) g09default scf=(xqc,maxcycle=64) force  guess=read   nosymm

 Title Card 

-1 1
17  -9.83947338  7.50348867  10.36130324
6  -8.30795608  4.25568750  12.24119661
6  -9.07747490  3.94134975  11.10373803
6  -10.01057575  2.88886523  11.19379988
6  -10.18502461  2.19023933  12.37875554
6  -9.42420429  2.52464789  13.50355099
6  -8.48273859  3.55226012  13.42620897
1  -7.57107938  5.06197033  12.19878945
1  -10.60010973  2.62820203  10.30862337
1  -10.91276433  1.37781957  12.43348284
1  -9.55899111  1.97604570  14.43513391
1  -7.88248057  3.80860342  14.30330910
6  -8.93977631  4.66472756  9.84452486
6  -8.12869342  5.70089748  9.60185473
1  -9.61045964  4.32114372  9.04302068
1  -8.04213523  6.11712725  8.58631500
1  -7.35872378  6.04193878  10.31404647
8  -0.97358526  -1.76438176  7.44309841
8  -8.44733338  -1.32290017  7.45077824
8  -7.08730384  1.36568032  10.50672176
8  -2.31231753  -4.37528204  10.57810809
74  -3.41891857  0.74855705  6.52336561
74  -6.02708089  -3.82654403  6.60149256
74  -3.64435619  0.93252573  11.38617247
74  -5.76795616  -3.87858727  11.45735115
74  -2.47354740  -2.53322527  6.37200217
74  -6.94575650  -0.54646143  6.34934287
74  -6.81882853  -0.24660611  11.60331805
74  -2.58476163  -2.69549296  11.63354038
8  -3.21025975  1.93204480  5.36394446
8  -6.13363081  -5.07052545  5.47435666
8  -2.71673094  1.75444443  12.52448663
8  -6.68746370  -4.66528305  12.62570072
8  -2.68265123  -0.85916970  5.57403179
8  -6.73047952  -2.27873336  5.61353496
8  -5.32928176  0.58529886  12.38174752
8  -4.06561370  -3.52543351  12.42938387
8  0.27814942  -0.00699471  9.28162027
8  -9.69915576  -3.01204670  9.34356442
8  -6.45057211  3.40115095  8.67475806
8  -2.97481350  -6.43235092  8.74023602
8  -1.79042293  0.79478629  7.48267919
8  -7.63725881  -3.88530785  7.55435925
8  -4.54776448  2.25026531  10.43363376
8  -4.86048325  -5.23561050  10.53110831
8  -1.65802246  -3.47161513  5.23756719
8  -7.80912347  0.25677567  5.16708697
8  -8.02559046  -0.18182504  12.77126905
8  -1.35395732  -2.78964873  12.77652100
74  -1.25436702  -0.53610868  8.83022829
74  -8.16903618  -2.49081177  8.87506853
74  -5.97071876  1.85713597  9.06333021
74  -3.44814153  -4.87755072  9.17617882
8  -4.24340406  -3.07118041  6.08903142
8  -5.16992016  -0.05352949  6.03795742
8  -6.16529856  -1.99062652  11.90634568
8  -3.21644773  -0.95848005  11.91257166
8  -4.39839996  1.58847966  7.86816971
8  -5.01260695  -4.64711297  7.95067041
8  -2.36722597  0.58982438  10.05987336
8  -7.04498391  -3.59577203  10.12116179
8  -2.57104441  -3.86080657  7.87092579
8  -6.86037448  0.78562512  7.81233086
8  -7.84573033  -1.15953133  10.15176019
8  -1.57595919  -1.84477233  10.14281172
8  -3.35910299  -1.13989817  8.01796667
8  -6.06139681  -1.93194679  8.04234687
8  -5.17120249  -0.17840115  9.94566819
8  -4.22565353  -2.83041518  9.98121316
19  -3.24731822  -6.06766144  5.70348101
19  -0.19974225  0.01658727  12.31203334
19  -9.21486873  -2.91815429  12.36520544
23  -4.70630025  -1.51581955  8.99501194

-c -h -mn -co -ag -ni -ni 0
def2svp
****
-n -o -f -cl 0
6-31+g(d)
****
-ce 0
sdd
****

-ce 0
sdd



