%chk=b.chk
%nprocshared=56 
%mem=96gb 
# def2svp wb97xd scrf=(smd,solvent=acetonitrile) g09default scf=(xqc,maxcycle=64) force  guess=read   nosymm

 Title Card 

-1 1
17  -9.98228516  7.93673966  10.47835891
6  -8.30892535  4.23847025  12.23304797
6  -9.07075274  3.91598250  11.09501005
6  -10.00632271  2.87092562  11.19783704
6  -10.18729033  2.18326644  12.39367277
6  -9.42830590  2.51970730  13.51476517
6  -8.48667563  3.54710467  13.42742730
1  -7.57212327  5.04371849  12.19152266
1  -10.60160785  2.60269150  10.32055098
1  -10.92535372  1.37998599  12.45199625
1  -9.56241350  1.97730687  14.45292897
1  -7.89205143  3.81823155  14.30331168
6  -8.94080877  4.62806587  9.82249447
6  -8.12254603  5.66561647  9.57188924
1  -9.58436399  4.26212581  9.01518113
1  -8.07433489  6.11297509  8.57787328
1  -7.40129118  6.03349426  10.30524271
8  -1.00960426  -1.76186030  7.45798063
8  -8.41171367  -1.32688734  7.46347406
8  -7.05447212  1.34456316  10.48831920
8  -2.33284477  -4.35290016  10.56161513
74  -3.42248128  0.74059091  6.49284373
74  -6.01186375  -3.82947571  6.58267348
74  -3.63160507  0.91758253  11.41041340
74  -5.77977778  -3.86879140  11.47282379
74  -2.47014161  -2.54805765  6.38110017
74  -6.94480497  -0.53628072  6.34982024
74  -6.82658452  -0.25040246  11.59212174
74  -2.57285963  -2.69498049  11.62892681
8  -3.19412823  1.94073449  5.32782580
8  -6.14718677  -5.08079331  5.44154583
8  -2.71439648  1.77190143  12.55793097
8  -6.68838128  -4.68657200  12.65317705
8  -2.69524886  -0.86846390  5.58495833
8  -6.71784895  -2.27103176  5.62752366
8  -5.32276134  0.56600534  12.36880843
8  -4.06597459  -3.51221414  12.41239322
8  0.29579202  -0.00065516  9.27078814
8  -9.71859993  -3.01783039  9.32695015
8  -6.38841079  3.41761058  8.63639098
8  -2.96700801  -6.45246804  8.75141790
8  -1.80837998  0.78195261  7.48142730
8  -7.61321082  -3.87731919  7.55883222
8  -4.53361494  2.21965816  10.42761447
8  -4.86459020  -5.21374126  10.52463608
8  -1.63446881  -3.47345585  5.22608675
8  -7.83166620  0.26399926  5.15692751
8  -8.03952009  -0.16667239  12.77633461
8  -1.33804297  -2.81443965  12.79053742
74  -1.26583614  -0.51684292  8.84246407
74  -8.15905951  -2.50994543  8.88058802
74  -5.92684583  1.85093335  9.04536944
74  -3.46955209  -4.88299296  9.16777946
8  -4.23825448  -3.09165544  6.07051428
8  -5.17550955  -0.03120925  6.01015683
8  -6.18633183  -2.00015052  11.92333661
8  -3.18719135  -0.95093794  11.93373960
8  -4.38741454  1.59055677  7.84877608
8  -5.00721678  -4.67504520  7.92674907
8  -2.34200042  0.60152200  10.08148742
8  -7.06698686  -3.61158603  10.14015139
8  -2.58062984  -3.87157269  7.85978438
8  -6.84164824  0.78609778  7.80401010
8  -7.84436149  -1.17396228  10.15953751
8  -1.57508065  -1.83521166  10.15138793
8  -3.38434558  -1.13034994  8.01418607
8  -6.03396445  -1.95022016  8.04147985
8  -5.13712401  -0.19732716  9.95166820
8  -4.25086292  -2.82356129  9.97982897
19  -3.23177464  -6.12465309  5.66188952
19  -0.14452973  0.04274072  12.35335860
19  -9.27437433  -2.92702917  12.41605551
23  -4.70402968  -1.52171999  8.99424937

-c -h -mn -co -ag -ni -ni 0
def2svp
****
-n -o -f -cl 0
6-31+g(d)
****
-ce 0
sdd
****

-ce 0
sdd



