%chk=a.chk
%nprocshared=56 
%mem=96gb 
# def2svp wb97xd scrf=(smd,solvent=acetonitrile) g09default scf=(xqc,maxcycle=64) force  guess=read   nosymm

 Title Card 

-1 1
17  -9.98069932  7.94951069  10.48186582
6  -8.30962269  4.23836940  12.23284067
6  -9.07259474  3.91601328  11.09543136
6  -10.00709790  2.87027461  11.19840116
6  -10.18739340  2.18284991  12.39379905
6  -9.42833352  2.51970492  13.51491942
6  -8.48667139  3.54700334  13.42705555
1  -7.57176992  5.04251418  12.18985160
1  -10.60150193  2.60077396  10.32036468
1  -10.92540431  1.37929080  12.45308843
1  -9.56344140  1.97861878  14.45358400
1  -7.89173526  3.81806078  14.30285123
6  -8.94276154  4.62837860  9.82296503
6  -8.12562545  5.66685518  9.57218620
1  -9.58535875  4.26112906  9.01559887
1  -8.07834963  6.11358925  8.57772192
1  -7.40692309  6.03895253  10.30583911
8  -1.00896563  -1.76179916  7.45750902
8  -8.41191418  -1.32748031  7.46286804
8  -7.05341147  1.34504040  10.48833526
8  -2.33283081  -4.35382414  10.56172534
74  -3.42196115  0.73906736  6.49216866
74  -6.01159612  -3.82941160  6.58222905
74  -3.63135936  0.91708162  11.41083464
74  -5.77964355  -3.86838031  11.47284521
74  -2.46973820  -2.54874649  6.38180566
74  -6.94431787  -0.53673528  6.35063580
74  -6.82621907  -0.25014184  11.59089407
74  -2.57273962  -2.69537535  11.62832730
8  -3.19249997  1.93877626  5.32635226
8  -6.14799686  -5.08005082  5.43999488
8  -2.71541276  1.77146564  12.55959202
8  -6.68672529  -4.68657607  12.65392231
8  -2.69414757  -0.86913300  5.58500310
8  -6.71804824  -2.27124081  5.62767757
8  -5.32262828  0.56633291  12.36821834
8  -4.06555513  -3.51295720  12.41185676
8  0.29562628  -0.00006012  9.27009366
8  -9.71839732  -3.01865895  9.32583004
8  -6.38727658  3.41769485  8.63876443
8  -2.96798313  -6.45312834  8.75271417
8  -1.80759782  0.78096625  7.48052633
8  -7.61333589  -3.87710724  7.55804775
8  -4.53315250  2.21964085  10.42832760
8  -4.86415978  -5.21353194  10.52494718
8  -1.63313744  -3.47407150  5.22732181
8  -7.83275157  0.26313828  5.15824305
8  -8.03961570  -0.16484357  12.77452924
8  -1.33781257  -2.81690956  12.78935051
74  -1.26582111  -0.51689869  8.84201961
74  -8.15886929  -2.51042986  8.87987872
74  -5.92509693  1.85048118  9.04570837
74  -3.46984073  -4.88323752  9.16826329
8  -4.23819545  -3.09159824  6.07021211
8  -5.17476323  -0.03204857  6.00946906
8  -6.18550925  -1.99991469  11.92305890
8  -3.18709769  -0.95128013  11.93420509
8  -4.38616964  1.58924955  7.84915336
8  -5.00741555  -4.67506105  7.92661160
8  -2.34191591  0.60125244  10.08142351
8  -7.06682344  -3.61171402  10.13983899
8  -2.58039195  -3.87171902  7.86011389
8  -6.84084495  0.78555341  7.80438795
8  -7.84392994  -1.17376803  10.15866035
8  -1.57529975  -1.83594634  10.15069148
8  -3.38362369  -1.13066977  8.01338419
8  -6.03405872  -1.95028110  8.04058202
8  -5.13640617  -0.19705208  9.95186450
8  -4.25066061  -2.82401634  9.98001759
19  -3.23115287  -6.12608350  5.66081093
19  -0.14270409  0.04369680  12.35425215
19  -9.27580875  -2.92602286  12.41759904
23  -4.70378890  -1.52183064  8.99381612

-c -h -mn -co -ag -ni -ni 0
def2svp
****
-n -o -f -cl 0
6-31+g(d)
****
-ce 0
sdd
****

-ce 0
sdd



