%chk=b.chk
%nprocshared=56 
%mem=96gb 
# def2svp wb97xd scrf=(smd,solvent=acetonitrile) g09default scf=(xqc,maxcycle=64) force  guess=read   nosymm

 Title Card 

-1 1
17  -9.97436327  7.97787398  10.48962443
6  -8.31138266  4.23806730  12.23210089
6  -9.07629914  3.91623361  11.09621270
6  -10.00932665  2.86891073  11.19898627
6  -10.18828615  2.18178150  12.39510158
6  -9.42921843  2.52032532  13.51554595
6  -8.48693046  3.54703017  13.42674274
1  -7.57124482  5.03988634  12.18586466
1  -10.60120049  2.59670284  10.32035489
1  -10.92496043  1.37723466  12.45530015
1  -9.56571180  1.98140186  14.45532053
1  -7.89039081  3.81727866  14.30154632
6  -8.94729119  4.62883092  9.82406743
6  -8.13388997  5.67087193  9.57273218
1  -9.58872967  4.25976242  9.01659691
1  -8.08905342  6.11568467  8.57735958
1  -7.42204018  6.05320753  10.30782131
8  -1.00706862  -1.76242638  7.45701154
8  -8.41237541  -1.32852541  7.46189046
8  -7.05150561  1.34594775  10.48788654
8  -2.33248215  -4.35592743  10.56151637
74  -3.42076114  0.73523091  6.49049173
74  -6.01081774  -3.82894287  6.58092497
74  -3.63091772  0.91534504  11.41181050
74  -5.77867137  -3.86702842  11.47256869
74  -2.46831931  -2.55065774  6.38375540
74  -6.94380886  -0.53744047  6.35260435
74  -6.82551892  -0.24964013  11.58773385
74  -2.57223285  -2.69652743  11.62633546
8  -3.18909778  1.93363975  5.32387854
8  -6.14918052  -5.07789055  5.43760502
8  -2.71744797  1.76963591  12.56240179
8  -6.68322659  -4.68583913  12.65488484
8  -2.69145697  -0.87111080  5.58473503
8  -6.71831534  -2.27151982  5.62750207
8  -5.32244480  0.56671623  12.36729952
8  -4.06454933  -3.51443788  12.41097497
8  0.29524313  0.00096556  9.26910382
8  -9.71778352  -3.02042323  9.32382919
8  -6.38490464  3.41765869  8.64437402
8  -2.97037732  -6.45451642  8.75545658
8  -1.80569089  0.77917795  7.47885236
8  -7.61361129  -3.87725356  7.55645005
8  -4.53159126  2.21987670  10.42977542
8  -4.86383762  -5.21370679  10.52531568
8  -1.63061799  -3.47623789  5.23033062
8  -7.83441840  0.26124558  5.16133949
8  -8.03970975  -0.16141363  12.77034919
8  -1.33715719  -2.82201659  12.78659462
74  -1.26601585  -0.51695728  8.84100373
74  -8.15794877  -2.51190795  8.87838980
74  -5.92082798  1.84962421  9.04657911
74  -3.47094296  -4.88397788  9.16913019
8  -4.23756226  -3.09188798  6.06949381
8  -5.17334221  -0.03402436  6.00821511
8  -6.18378570  -1.99924410  11.92228834
8  -3.18633757  -0.95233016  11.93507459
8  -4.38350776  1.58673201  7.84953071
8  -5.00759063  -4.67507099  7.92623551
8  -2.34153087  0.60038104  10.08134483
8  -7.06651224  -3.61175131  10.13919813
8  -2.57976993  -3.87235274  7.86094684
8  -6.83888834  0.78454168  7.80536724
8  -7.84293835  -1.17335401  10.15645163
8  -1.57564138  -1.83779644  10.14893695
8  -3.38197342  -1.13171688  8.01161916
8  -6.03411927  -1.95046084  8.03890343
8  -5.13449560  -0.19665583  9.95217984
8  -4.25009475  -2.82481380  9.98016513
19  -3.22969943  -6.12889399  5.65857118
19  -0.13869499  0.04572406  12.35585007
19  -9.27862505  -2.92305885  12.42071618
23  -4.70295743  -1.52219859  8.99282533

-c -h -mn -co -ag -ni -ni 0
def2svp
****
-n -o -f -cl 0
6-31+g(d)
****
-ce 0
sdd
****

-ce 0
sdd



