%chk=a.chk
%nprocshared=56 
%mem=96gb 
# def2svp wb97xd scrf=(smd,solvent=acetonitrile) g09default scf=(xqc,maxcycle=64) force  guess=read   nosymm

 Title Card 

-1 1
17  -9.96372560  8.01031944  10.49848962
6  -8.31330884  4.23755647  12.23124306
6  -9.08040451  3.91622667  11.09679509
6  -10.01189843  2.86730849  11.19987590
6  -10.18987077  2.18094353  12.39677996
6  -9.43107422  2.52173794  13.51694547
6  -8.48766033  3.54734953  13.42649052
1  -7.57094516  5.03694911  12.18125793
1  -10.60120754  2.59220364  10.32059443
1  -10.92405909  1.37426844  12.45768245
1  -9.56817519  1.98444181  14.45752245
1  -7.88820128  3.81605389  14.29982895
6  -8.95302417  4.62992947  9.82523433
6  -8.14607178  5.67729332  9.57370852
1  -9.59342956  4.25874728  9.01769623
1  -8.10331291  6.11906207  8.57688312
1  -7.44218180  6.07144973  10.31051026
8  -1.00455200  -1.76394126  7.45713420
8  -8.41273020  -1.32944785  7.46124828
8  -7.04970711  1.34666657  10.48681913
8  -2.33196620  -4.35836070  10.56073092
74  -3.41938629  0.73042821  6.48855355
74  -6.00976654  -3.82769630  6.57951206
74  -3.63055913  0.91274887  11.41289593
74  -5.77700954  -3.86535385  11.47217395
74  -2.46604458  -2.55338901  6.38603829
74  -6.94364285  -0.53796520  6.35500189
74  -6.82506432  -0.24907913  11.58413004
74  -2.57104274  -2.69831512  11.62375795
8  -3.18556825  1.92748498  5.32138687
8  -6.14973280  -5.07572453  5.43535587
8  -2.71888158  1.76685582  12.56505201
8  -6.67989212  -4.68433785  12.65558051
8  -2.68824046  -0.87401021  5.58408456
8  -6.71830008  -2.27161570  5.62683008
8  -5.32230402  0.56661682  12.36661381
8  -4.06329770  -3.51577466  12.41015124
8  0.29487668  0.00173284  9.26869919
8  -9.71674933  -3.02230762  9.32215903
8  -6.38217719  3.41778181  8.65055028
8  -2.97315866  -6.45658788  8.75804996
8  -1.80347324  0.77746578  7.47746000
8  -7.61363781  -3.87800864  7.55486899
8  -4.52912976  2.22006057  10.43113030
8  -4.86425309  -5.21448851  10.52530201
8  -1.62797269  -3.47994361  5.23373816
8  -7.83580232  0.25972588  5.16450943
8  -8.04002369  -0.15846291  12.76568064
8  -1.33587484  -2.82719968  12.78350408
74  -1.26581313  -0.51686667  8.83999776
74  -8.15699808  -2.51415246  8.87704557
74  -5.91572071  1.84916755  9.04751844
74  -3.47270367  -4.88516642  9.16987220
8  -4.23617191  -3.09266015  6.06875617
8  -5.17206201  -0.03631103  6.00727050
8  -6.18204989  -1.99834803  11.92113162
8  -3.18482914  -0.95391605  11.93577510
8  -4.38054153  1.58431351  7.84920671
8  -5.00757457  -4.67500026  7.92559676
8  -2.34097521  0.59905812  10.08141053
8  -7.06595991  -3.61160169  10.13857362
8  -2.57908693  -3.87353985  7.86197078
8  -6.83632088  0.78364968  7.80649849
8  -7.84160688  -1.17303319  10.15373167
8  -1.57595265  -1.83996301  10.14679252
8  -3.38001703  -1.13338066  8.00977390
8  -6.03394859  -1.95064098  8.03754927
8  -5.13220300  -0.19656839  9.95219237
8  -4.24921364  -2.82555386  9.97992137
19  -3.22795980  -6.13164066  5.65619924
19  -0.13421387  0.04787260  12.35719549
19  -9.28141414  -2.91877787  12.42389638
23  -4.70182526  -1.52274797  8.99176006

-c -h -mn -co -ag -ni -ni 0
def2svp
****
-n -o -f -cl 0
6-31+g(d)
****
-ce 0
sdd
****

-ce 0
sdd



