%chk=a.chk
%nprocshared=56 
%mem=96gb 
# def2svp wb97xd scrf=(smd,solvent=acetonitrile) g09default scf=(xqc,maxcycle=64) force  guess=read   nosymm

 Title Card 

-1 1
17  -9.94482681  8.05208712  10.50983007
6  -8.31572889  4.23665930  12.22991250
6  -9.08565077  3.91597039  11.09733346
6  -10.01508951  2.86521027  11.20132318
6  -10.19234844  2.18040617  12.39926069
6  -9.43444411  2.52436509  13.51929944
6  -8.48908258  3.54805559  13.42627984
1  -7.57083705  5.03329417  12.17558129
1  -10.60195336  2.58664804  10.32136514
1  -10.92251691  1.36991082  12.46059706
1  -9.57115898  1.98820513  14.46069644
1  -7.88479308  3.81416058  14.29722239
6  -8.96213509  4.63235052  9.82669745
6  -8.16602549  5.68868841  9.57579138
1  -9.60017130  4.25771798  9.01887616
1  -8.12488191  6.12530115  8.57640913
1  -7.47233669  6.09735702  10.31421492
8  -1.00109118  -1.76678598  7.45814929
8  -8.41265022  -1.33043899  7.46100817
8  -7.04752847  1.34708519  10.48478170
8  -2.33151804  -4.36158036  10.55915368
74  -3.41767770  0.72396486  6.48604232
74  -6.00814008  -3.82577206  6.57738684
74  -3.62975586  0.90869694  11.41451054
74  -5.77471100  -3.86336124  11.47203419
74  -2.46222634  -2.55780810  6.38873331
74  -6.94393510  -0.53805673  6.35803437
74  -6.82505436  -0.24848617  11.57979788
74  -2.56829922  -2.70115339  11.62040232
8  -3.18168192  1.91956484  5.31817364
8  -6.14914431  -5.07351359  5.43300740
8  -2.71907280  1.76235039  12.56783928
8  -6.67686496  -4.68161147  12.65623587
8  -2.68399906  -0.87863141  5.58315802
8  -6.71773468  -2.27135294  5.62574984
8  -5.32209389  0.56568494  12.36592921
8  -4.06153391  -3.51700469  12.40901496
8  0.29505678  0.00220927  9.26942821
8  -9.71541180  -3.02473875  9.32115834
8  -6.37849051  3.41866190  8.65746723
8  -2.97681122  -6.46002875  8.76024065
8  -1.80078299  0.77531604  7.47642244
8  -7.61301706  -3.87937631  7.55327910
8  -4.52525080  2.21963151  10.43222747
8  -4.86570273  -5.21593754  10.52473156
8  -1.62460403  -3.48670921  5.23784075
8  -7.83693076  0.25913550  5.16788007
8  -8.04112334  -0.15627445  12.76015453
8  -1.33310281  -2.83279224  12.77971194
74  -1.26492655  -0.51673016  8.83898761
74  -8.15565011  -2.51753165  8.87587276
74  -5.90898640  1.84936684  9.04837524
74  -3.47537545  -4.88772077  9.17014555
8  -4.23351546  -3.09415816  6.06807980
8  -5.17069633  -0.03926412  6.00686150
8  -6.18019114  -1.99713355  11.91918644
8  -3.18219078  -0.95654062  11.93616237
8  -4.37690804  1.58194485  7.84775065
8  -5.00730934  -4.67477279  7.92457944
8  -2.34013128  0.59681331  10.08167803
8  -7.06475894  -3.61127192  10.13782920
8  -2.57825631  -3.87589992  7.86328311
8  -6.83255519  0.78302114  7.80773669
8  -7.83959669  -1.17292646  10.15020590
8  -1.57614825  -1.84274096  10.14410880
8  -3.37735202  -1.13604339  8.00765104
8  -6.03346964  -1.95100262  8.03642907
8  -5.12932377  -0.19676878  9.95181099
8  -4.24775414  -2.82669597  9.97923030
19  -3.22563518  -6.13441415  5.65348241
19  -0.12870601  0.05033657  12.35816432
19  -9.28436516  -2.91191304  12.42743134
23  -4.70011054  -1.52363743  8.99045982

-c -h -mn -co -ag -ni -ni 0
def2svp
****
-n -o -f -cl 0
6-31+g(d)
****
-ce 0
sdd
****

-ce 0
sdd



