%chk=a.chk
%nprocshared=56 
%mem=96gb 
# def2svp wb97xd scrf=(smd,solvent=acetonitrile) g09default scf=(xqc,maxcycle=64) force  guess=read   nosymm

 Title Card 

-1 1
17  -9.93168971  8.07633350  10.51632340
6  -8.31715166  4.23606970  12.22906748
6  -9.08874817  3.91597784  11.09755167
6  -10.01700488  2.86393318  11.20215188
6  -10.19386823  2.18015799  12.40085132
6  -9.43662265  2.52602968  13.52080493
6  -8.48996254  3.54857045  13.42613927
1  -7.57081640  5.03122203  12.17247779
1  -10.60270531  2.58353888  10.32209854
1  -10.92152910  1.36737870  12.46226155
1  -9.57283534  1.99040920  14.46262300
1  -7.88274972  3.81301622  14.29553553
6  -8.96837532  4.63416169  9.82770937
6  -8.17939558  5.69664542  9.57728520
1  -9.60421086  4.25700333  9.01936456
1  -8.13886148  6.12989214  8.57637603
1  -7.49151662  6.11326192  10.31642536
8  -0.99905735  -1.76868674  7.45898427
8  -8.41233160  -1.33101365  7.46103724
8  -7.04617302  1.34715472  10.48343209
8  -2.33144468  -4.36353847  10.55814422
74  -3.41676391  0.72006291  6.48471442
74  -6.00708304  -3.82481776  6.57584344
74  -3.62891198  0.90618988  11.41569049
74  -5.77351033  -3.86239200  11.47225233
74  -2.45969068  -2.56072170  6.39012312
74  -6.94420531  -0.53789360  6.35978052
74  -6.82528658  -0.24821296  11.57748999
74  -2.56620023  -2.70298895  11.61853677
8  -3.17970141  1.91514338  5.31606869
8  -6.14825300  -5.07238043  5.43187637
8  -2.71854104  1.75929199  12.56914983
8  -6.67563759  -4.67974435  12.65659753
8  -2.68150960  -0.88162097  5.58272948
8  -6.71718232  -2.27103805  5.62518798
8  -5.32190865  0.56485133  12.36550561
8  -4.06044367  -3.51757825  12.40824377
8  0.29559913  0.00231231  9.27038619
8  -9.71488850  -3.02626335  9.32113625
8  -6.37615460  3.41941169  8.66087774
8  -2.97902973  -6.46220779  8.76096859
8  -1.79932560  0.77394367  7.47606713
8  -7.61236566  -3.88016719  7.55252889
8  -4.52282136  2.21895558  10.43257528
8  -4.86678782  -5.21682506  10.52426738
8  -1.62260518  -3.49139028  5.24012609
8  -7.83734714  0.25944849  5.16954701
8  -8.04205012  -0.15568855  12.75713289
8  -1.33100345  -2.83560354  12.77754631
74  -1.26431152  -0.51676504  8.83845260
74  -8.15444066  -2.51947973  8.87529611
74  -5.90508113  1.84985731  9.04862210
74  -3.47695390  -4.88980607  9.16995471
8  -4.23170960  -3.09519233  6.06781162
8  -5.16988955  -0.04096537  6.00690665
8  -6.17926281  -1.99647558  11.91791269
8  -3.18049970  -0.95827948  11.93619253
8  -4.37488678  1.58091165  7.84654399
8  -5.00707559  -4.67463937  7.92397419
8  -2.33954463  0.59527390  10.08186810
8  -7.06386878  -3.61109571  10.13737431
8  -2.57774700  -3.87766642  7.86397134
8  -6.83025245  0.78293177  7.80825683
8  -7.83837282  -1.17300416  10.14827092
8  -1.57607576  -1.84434782  10.14271789
8  -3.37573848  -1.13773026  8.00653733
8  -6.03309424  -1.95132035  8.03593614
8  -5.12775407  -0.19692202  9.95150174
8  -4.24679332  -2.82759789  9.97878088
19  -3.22426057  -6.13570150  5.65205414
19  -0.12565368  0.05163127  12.35840102
19  -9.28583011  -2.90737614  12.42927375
23  -4.69902136  -1.52424388  8.98967167

-c -h -mn -co -ag -ni -ni 0
def2svp
****
-n -o -f -cl 0
6-31+g(d)
****
-ce 0
sdd
****

-ce 0
sdd



