%chk=b.chk
%nprocshared=56 
%mem=96gb 
# def2svp wb97xd scrf=(smd,solvent=acetonitrile) g09default scf=(xqc,maxcycle=64) force  guess=read   nosymm

 Title Card 

-1 1
17  -9.83617717  7.49009794  10.35869359
6  -8.30610825  4.25663795  12.24221955
6  -9.07850596  3.93905683  11.10588085
6  -10.01153444  2.88778064  11.19274220
6  -10.18549465  2.19006864  12.37719630
6  -9.42441019  2.52524999  13.50098775
6  -8.48145892  3.55382950  13.42504730
1  -7.57078426  5.06193066  12.19886882
1  -10.59996262  2.62817514  10.30844888
1  -10.91233322  1.37843788  12.43340991
1  -9.55898545  1.97676425  14.43410740
1  -7.88268364  3.80862303  14.30291682
6  -8.95129822  4.66511976  9.85414602
6  -8.12363447  5.71251178  9.60135728
1  -9.61042457  4.31995445  9.04218115
1  -8.04047446  6.11647566  8.58274828
1  -7.35489908  6.04138533  10.31558331
8  -0.96822102  -1.76555511  7.44165091
8  -8.45257605  -1.32142702  7.44936811
8  -7.09150132  1.37104135  10.50630732
8  -2.30807225  -4.37862441  10.57980667
74  -3.41771837  0.74205655  6.52835302
74  -6.02602091  -3.82100371  6.60749944
74  -3.64804420  0.92764691  11.37990317
74  -5.76325519  -3.87518748  11.45149722
74  -2.47841075  -2.52834061  6.37826857
74  -6.94152740  -0.55291386  6.35416661
74  -6.81098645  -0.24977407  11.59778129
74  -2.59116092  -2.69506751  11.62710348
8  -3.21074415  1.92835032  5.36696485
8  -6.13327609  -5.06722119  5.47680637
8  -2.71900163  1.75232058  12.52217055
8  -6.68512912  -4.66303736  12.62320498
8  -2.68134654  -0.85760473  5.56875605
8  -6.73230735  -2.27923251  5.60788977
8  -5.33031877  0.58724931  12.38687306
8  -4.06580038  -3.52727478  12.43473642
8  0.27481525  -0.00760422  9.28080540
8  -9.69593168  -3.01133486  9.34277099
8  -6.45245708  3.39876883  8.67771219
8  -2.97644559  -6.42901671  8.74103917
8  -1.78728762  0.79955907  7.48086558
8  -7.64073369  -3.88949866  7.55291593
8  -4.54690592  2.25588901  10.43463188
8  -4.86206328  -5.24085608  10.53275922
8  -1.65935924  -3.46995341  5.24027504
8  -7.80712389  0.25443768  5.17089160
8  -8.02347392  -0.18123728  12.76860446
8  -1.35644986  -2.78948477  12.77342419
74  -1.26252946  -0.53998211  8.82788114
74  -8.16041087  -2.48835056  8.87229230
74  -5.96707135  1.84851477  9.06578996
74  -3.45047367  -4.86941297  9.17800556
8  -4.24295331  -3.07282795  6.08676039
8  -5.17065440  -0.05181613  6.03577400
8  -6.16703649  -1.99007911  11.90892672
8  -3.21534603  -0.95771651  11.91519568
8  -4.39908017  1.59119143  7.86779217
8  -5.01349606  -4.64970374  7.94930555
8  -2.36598276  0.59188201  10.06151977
8  -7.04669438  -3.59747625  10.12268106
8  -2.56969183  -3.86284194  7.87036094
8  -6.86154429  0.78864700  7.81262425
8  -7.84793598  -1.15884348  10.15306914
8  -1.57341598  -1.84440436  10.14355634
8  -3.32241130  -1.13423391  7.99569064
8  -6.09865072  -1.93810934  8.02026031
8  -5.18887610  -0.14387294  9.96784380
8  -4.20879865  -2.86301772  10.00410372
19  -3.24772963  -6.06622298  5.70448732
19  -0.20108605  0.01597145  12.31103009
19  -9.21331837  -2.91779630  12.36405239
23  -4.70558522  -1.51607606  8.99453578

-c -h -mn -co -ag -ni -ni 0
def2svp
****
-n -o -f -cl 0
6-31+g(d)
****
-ce 0
sdd
****

-ce 0
sdd



