%chk=b.chk
%nprocshared=56 
%mem=96gb 
# def2svp wb97xd scrf=(smd,solvent=acetonitrile) g09default scf=(xqc,maxcycle=64) force  guess=read   nosymm

 Title Card 

-1 1
17  -9.86601728  8.17322966  10.54092799
6  -8.32313998  4.23448424  12.22528334
6  -9.10338280  3.91740390  11.09871224
6  -10.02498642  2.85930802  11.20607291
6  -10.19931178  2.17905133  12.40709746
6  -9.44454119  2.53251771  13.52661982
6  -8.49337922  3.55024979  13.42485233
1  -7.57077867  5.02326670  12.16116967
1  -10.60814574  2.57165264  10.32644820
1  -10.91810316  1.35818167  12.46926888
1  -9.57943912  1.99987362  14.47065293
1  -7.87511890  3.80903424  14.28817841
6  -8.99878409  4.64504139  9.83235070
6  -8.24343325  5.73418529  9.58531162
1  -9.62035111  4.25222648  9.02019482
1  -8.20507565  6.15578152  8.57877531
1  -7.57813323  6.18163231  10.32613433
8  -0.99072925  -1.77733440  7.46261114
8  -8.40950702  -1.33323171  7.46111106
8  -7.03970004  1.34721702  10.47788689
8  -2.33213576  -4.37273991  10.55453666
74  -3.41322851  0.70546506  6.47879066
74  -6.00183280  -3.82071095  6.56974854
74  -3.62474000  0.89411930  11.41983193
74  -5.76870925  -3.85908715  11.47374618
74  -2.44854204  -2.57366575  6.39533924
74  -6.94551038  -0.53604788  6.36626483
74  -6.82601219  -0.24737255  11.56881937
74  -2.55667118  -2.71168908  11.61099114
8  -3.17348975  1.89669205  5.30714349
8  -6.14210062  -5.06972732  5.42672920
8  -2.71223453  1.74534919  12.57394166
8  -6.67386164  -4.67163294  12.65920543
8  -2.67117851  -0.89490614  5.58212165
8  -6.71382729  -2.26929307  5.62361372
8  -5.32040013  0.56049097  12.36350505
8  -4.05575546  -3.51991873  12.40486910
8  0.29830996  0.00110655  9.27601806
8  -9.71031879  -3.03213513  9.32286180
8  -6.36538550  3.42378737  8.67040829
8  -2.98853353  -6.47295890  8.76024010
8  -1.79379487  0.76717076  7.47523691
8  -7.60818548  -3.88285817  7.54956101
8  -4.51244275  2.21370248  10.43276497
8  -4.87143069  -5.22052230  10.52271913
8  -1.61407730  -3.51309862  5.24920407
8  -7.83693671  0.26371080  5.17607536
8  -8.04691369  -0.15680312  12.74568535
8  -1.31996080  -2.84508892  12.76875681
74  -1.26002602  -0.51766204  8.83700959
74  -8.14999685  -2.52794215  8.87432272
74  -5.88915000  1.85253058  9.04883356
74  -3.48381297  -4.89888561  9.16858415
8  -4.22378433  -3.10020314  6.06717311
8  -5.16573942  -0.04794439  6.00796095
8  -6.17625872  -1.99464657  11.91274281
8  -3.17369781  -0.96614317  11.93565393
8  -4.36705768  1.57871463  7.84033499
8  -5.00598141  -4.67492237  7.92159757
8  -2.33609134  0.58780162  10.08256771
8  -7.05947333  -3.61103426  10.13529493
8  -2.57490495  -3.88725471  7.86573781
8  -6.82117877  0.78445130  7.80853208
8  -7.83363705  -1.17381533  10.14177454
8  -1.57382727  -1.85112737  10.13871031
8  -3.36858211  -1.14484198  8.00288749
8  -6.03115078  -1.95315252  8.03423702
8  -5.12220678  -0.19827618  9.94949931
8  -4.24258843  -2.83240287  9.97663299
19  -3.21862547  -6.13914260  5.64710688
19  -0.11438982  0.05598185  12.35731529
19  -9.29042838  -2.88602768  12.43550006
23  -4.69423031  -1.52757337  8.98747848

-c -h -mn -co -ag -ni -ni 0
def2svp
****
-n -o -f -cl 0
6-31+g(d)
****
-ce 0
sdd
****

-ce 0
sdd



