%chk=a.chk
%nprocshared=56 
%mem=96gb 
# def2svp wb97xd scrf=(smd,solvent=acetonitrile) g09default scf=(xqc,maxcycle=64) force  guess=read   nosymm

 Title Card 

-1 1
17  -9.84804130  8.19298314  10.54535689
6  -8.32465634  4.23445361  12.22443694
6  -9.10707055  3.91847097  11.09902241
6  -10.02703391  2.85855714  11.20683110
6  -10.20025211  2.17857779  12.40841865
6  -9.44573439  2.53357974  13.52771784
6  -8.49386373  3.55056346  13.42424887
1  -7.57085190  5.02190927  12.15905394
1  -10.61003670  2.56950747  10.32791199
1  -10.91762582  1.35675133  12.47086314
1  -9.58072458  2.00208111  14.47230529
1  -7.87380324  3.80850331  14.28652198
6  -9.00673624  4.64818309  9.83359624
6  -8.25981528  5.74360011  9.58747783
1  -9.62370676  4.25062149  9.02004569
1  -8.22244405  6.16382337  8.58035207
1  -7.59937315  6.19727108  10.32874332
8  -0.98886338  -1.77945424  7.46339103
8  -8.40850911  -1.33365350  7.46109168
8  -7.03804306  1.34726603  10.47678968
8  -2.33246304  -4.37513975  10.55404168
74  -3.41252768  0.70242803  6.47769738
74  -6.00048427  -3.82005171  6.56824553
74  -3.62335346  0.89122641  11.42076153
74  -5.76778114  -3.85866105  11.47433730
74  -2.44593709  -2.57666510  6.39633461
74  -6.94564589  -0.53553043  6.36764764
74  -6.82608070  -0.24730221  11.56721070
74  -2.55447911  -2.71395234  11.60939415
8  -3.17264100  1.89279075  5.30492078
8  -6.14006501  -5.06937036  5.42568985
8  -2.70999355  1.74165571  12.57440592
8  -6.67423830  -4.66972366  12.65996570
8  -2.66891100  -0.89795435  5.58231603
8  -6.71278821  -2.26883292  5.62340830
8  -5.31981643  0.55934349  12.36304961
8  -4.05472541  -3.52055185  12.40424731
8  0.29919115  0.00038664  9.27759249
8  -9.70908679  -3.03348829  9.32382964
8  -6.36259764  3.42469608  8.67117855
8  -2.99089920  -6.47538679  8.75910170
8  -1.79262325  0.76538769  7.47513668
8  -7.60698084  -3.88326827  7.54888495
8  -4.51009357  2.21193364  10.43248841
8  -4.87235653  -5.22141589  10.52266241
8  -1.61223239  -3.51810198  5.25123209
8  -7.83620124  0.26548005  5.17738503
8  -8.04794718  -0.15799908  12.74332675
8  -1.31708768  -2.84664182  12.76678655
74  -1.25897252  -0.51828084  8.83675601
74  -8.14830049  -2.52958508  8.87416847
74  -5.88588042  1.85350963  9.04851176
74  -3.48528844  -4.90121992  9.16807156
8  -4.22198290  -3.10149805  6.06717539
8  -5.16451974  -0.04948532  6.00834583
8  -6.17576893  -1.99454313  11.91174263
8  -3.17241266  -0.96812710  11.93532976
8  -4.36545366  1.57881833  7.83872127
8  -5.00572161  -4.67531548  7.92121653
8  -2.33497743  0.58582083  10.08263655
8  -7.05837926  -3.61126722  10.13478825
8  -2.57403284  -3.88999274  7.86585189
8  -6.81940447  0.78539979  7.80807523
8  -7.83278731  -1.17412886  10.14082466
8  -1.57268502  -1.85276855  10.13836123
8  -3.36691004  -1.14646218  8.00251614
8  -6.03049142  -1.95365210  8.03398076
8  -5.12130662  -0.19877753  9.94892423
8  -4.24157676  -2.83382846  9.97615310
19  -3.21744429  -6.13933499  5.64632361
19  -0.11238596  0.05661096  12.35640842
19  -9.29095314  -2.88056799  12.43640716
23  -4.69311019  -1.52861942  8.98713176

-c -h -mn -co -ag -ni -ni 0
def2svp
****
-n -o -f -cl 0
6-31+g(d)
****
-ce 0
sdd
****

-ce 0
sdd



