%chk=b.chk
%nprocshared=56 
%mem=96gb 
# def2svp wb97xd scrf=(smd,solvent=acetonitrile) g09default scf=(xqc,maxcycle=64) force  guess=read   nosymm

 Title Card 

-1 1
17  -9.79818679  8.23693098  10.55394251
6  -8.32874256  4.23553266  12.22221290
6  -9.11715760  3.92189147  11.09990999
6  -10.03234272  2.85769082  11.20930590
6  -10.20178846  2.17757100  12.41113704
6  -9.44727212  2.53542063  13.52951202
6  -8.49455705  3.55113367  13.42240868
1  -7.57174374  5.01977957  12.15429292
1  -10.61631142  2.56556004  10.33194722
1  -10.91739226  1.35427952  12.47490590
1  -9.58316088  2.00738786  14.47601027
1  -7.87130203  3.80811877  14.28255859
6  -9.02768488  4.65649103  9.83637784
6  -8.30251571  5.76803256  9.59363137
1  -9.63167781  4.24599382  9.01942446
1  -8.27033795  6.18825482  8.58627880
1  -7.65489141  6.23591232  10.33662159
8  -0.98421370  -1.78510165  7.46510657
8  -8.40541012  -1.33434950  7.46090671
8  -7.03369030  1.34763467  10.47445031
8  -2.33326714  -4.38168916  10.55341707
74  -3.41061968  0.69583429  6.47515590
74  -5.99689151  -3.81845976  6.56479513
74  -3.61990418  0.88355141  11.42216538
74  -5.76570488  -3.85829327  11.47631327
74  -2.43971199  -2.58365654  6.39894354
74  -6.94548461  -0.53422743  6.37071573
74  -6.82555374  -0.24726784  11.56358223
74  -2.54916481  -2.72017552  11.60585751
8  -3.17129663  1.88321651  5.29949113
8  -6.13434504  -5.06903087  5.42285634
8  -2.70307760  1.73201027  12.57482706
8  -6.67595206  -4.66509278  12.66192454
8  -2.66349052  -0.90535434  5.58329448
8  -6.70976301  -2.26781719  5.62289620
8  -5.31787352  0.55640814  12.36203508
8  -4.05239675  -3.52259062  12.40335295
8  0.30138551  -0.00233400  9.28116682
8  -9.70443351  -3.03658565  9.32638323
8  -6.35549018  3.42718311  8.67094857
8  -2.99718879  -6.48143689  8.75497453
8  -1.78961616  0.76058305  7.47482238
8  -7.60374822  -3.88401290  7.54689622
8  -4.50421237  2.20696466  10.43144747
8  -4.87410703  -5.22394528  10.52331751
8  -1.60767272  -3.52971868  5.25592348
8  -7.83310577  0.27067194  5.18048438
8  -8.04984103  -0.16196793  12.73797077
8  -1.31016752  -2.84993774  12.76183814
74  -1.25587872  -0.52055955  8.83640171
74  -8.14426390  -2.53362264  8.87418369
74  -5.87827448  1.85569920  9.04743283
74  -3.48887325  -4.90696418  9.16677360
8  -4.21764598  -3.10490917  6.06755361
8  -5.16106194  -0.05347397  6.00955495
8  -6.17453874  -1.99478636  11.90963752
8  -3.17000284  -0.97357132  11.93398897
8  -4.36156427  1.57967120  7.83472209
8  -5.00522710  -4.67683240  7.92064288
8  -2.33174163  0.58036831  10.08253849
8  -7.05536022  -3.61223683  10.13348975
8  -2.57158348  -3.89734830  7.86596709
8  -6.81550149  0.78857286  7.80632977
8  -7.83088997  -1.17500499  10.13917944
8  -1.56892347  -1.85731110  10.13812851
8  -3.36274091  -1.15054827  8.00263325
8  -6.02836602  -1.95491869  8.03357519
8  -5.11950748  -0.20079035  9.94716657
8  -4.23902061  -2.83779001  9.97500851
19  -3.21477591  -6.13891961  5.64495724
19  -0.10847692  0.05743133  12.35289846
19  -9.29128028  -2.86597165  12.43762093
23  -4.69020356  -1.53158662  8.98675436

-c -h -mn -co -ag -ni -ni 0
def2svp
****
-n -o -f -cl 0
6-31+g(d)
****
-ce 0
sdd
****

-ce 0
sdd



