%chk=b.chk
%nprocshared=56 
%mem=96gb 
# def2svp wb97xd scrf=(smd,solvent=acetonitrile) g09default scf=(xqc,maxcycle=64) force  guess=read   nosymm

 Title Card 

-1 1
17  -9.78377318  8.24635859  10.55534631
6  -8.32994363  4.23617785  12.22160118
6  -9.11992377  3.92302355  11.10011898
6  -10.03387514  2.85778204  11.21004900
6  -10.20198963  2.17738879  12.41171216
6  -9.44722214  2.53562487  13.52968776
6  -8.49455735  3.55130756  13.42182919
1  -7.57231939  5.01975546  12.15319457
1  -10.61847241  2.56513139  10.33314517
1  -10.91763888  1.35402353  12.47596571
1  -9.58342127  2.00862315  14.47676628
1  -7.87089261  3.80835597  14.28158052
6  -9.03330557  4.65872515  9.83698370
6  -8.31411727  5.77463006  9.59544161
1  -9.63370036  4.24466472  9.01918265
1  -8.28430196  6.19609633  8.58853149
1  -7.66996933  6.24568667  10.33917202
8  -0.98301950  -1.78669725  7.46548567
8  -8.40438531  -1.33441595  7.46085964
8  -7.03248745  1.34779919  10.47396609
8  -2.33344696  -4.38353791  10.55343073
74  -3.41004403  0.69435086  6.47470148
74  -5.99592152  -3.81826705  6.56382276
74  -3.61901122  0.88149055  11.42224449
74  -5.76521915  -3.85843415  11.47699730
74  -2.43817715  -2.58527090  6.39965339
74  -6.94535459  -0.53380131  6.37122405
74  -6.82512246  -0.24730363  11.56272091
74  -2.54788809  -2.72197721  11.60508587
8  -3.17111922  1.88092093  5.29804959
8  -6.13270048  -5.06895397  5.42216424
8  -2.70092498  1.72937562  12.57465471
8  -6.67658826  -4.66400801  12.66244149
8  -2.66220306  -0.90716962  5.58370353
8  -6.70883763  -2.26761728  5.62273850
8  -5.31720718  0.55563011  12.36180630
8  -4.05188484  -3.52329348  12.40336329
8  0.30206404  -0.00331866  9.28189562
8  -9.70286291  -3.03734938  9.32703484
8  -6.35368828  3.42797899  8.67028199
8  -2.99895709  -6.48295151  8.75358667
8  -1.78878555  0.75922050  7.47470433
8  -7.60287159  -3.88410649  7.54628921
8  -4.50267860  2.20554932  10.43106276
8  -4.87435826  -5.22471094  10.52375912
8  -1.60650882  -3.53229780  5.25696371
8  -7.83181362  0.27211014  5.18128936
8  -8.05006047  -0.16319194  12.73684224
8  -1.30853019  -2.85068732  12.76063612
74  -1.25500414  -0.52142732  8.83637813
74  -8.14318776  -2.53460811  8.87427935
74  -5.87647877  1.85606859  9.04709484
74  -3.48973701  -4.90850772  9.16642916
8  -4.21658224  -3.10582626  6.06782318
8  -5.16003412  -0.05457932  6.00999617
8  -6.17415691  -1.99499359  11.90919685
8  -3.16967271  -0.97519109  11.93339565
8  -4.36056410  1.57999223  7.83374713
8  -5.00517647  -4.67734731  7.92064824
8  -2.33078562  0.57876735  10.08239527
8  -7.05445145  -3.61258195  10.13312934
8  -2.57091542  -3.89932141  7.86602317
8  -6.81461820  0.78958075  7.80575384
8  -7.83041173  -1.17526496  10.13893267
8  -1.56770220  -1.85866274  10.13821223
8  -3.36168911  -1.15164127  8.00302716
8  -6.02764506  -1.95526906  8.03352576
8  -5.11913343  -0.20159199  9.94661459
8  -4.23836670  -2.83894413  9.97475023
19  -3.21419382  -6.13853808  5.64479634
19  -0.10785322  0.05736632  12.35156072
19  -9.29103226  -2.86187479  12.43756580
23  -4.68936739  -1.53243335  8.98683396

-c -h -mn -co -ag -ni -ni 0
def2svp
****
-n -o -f -cl 0
6-31+g(d)
****
-ce 0
sdd
****

-ce 0
sdd



