%chk=a.chk
%nprocshared=56 
%mem=96gb 
# def2svp wb97xd scrf=(smd,solvent=acetonitrile) g09default scf=(xqc,maxcycle=64) force  guess=read   nosymm

 Title Card 

-1 1
17  -9.72554369  8.27376347  10.55750322
6  -8.33500353  4.23955997  12.21925923
6  -9.12993971  3.92763174  11.10064893
6  -10.04027274  2.85925412  11.21248950
6  -10.20279871  2.17694304  12.41376341
6  -9.44560217  2.53588133  13.52969981
6  -8.49429850  3.55246224  13.41920241
1  -7.57623772  5.02214837  12.14934730
1  -10.62841776  2.56624910  10.33819166
1  -10.91935398  1.35454945  12.47987749
1  -9.58236825  2.01212193  14.47852661
1  -7.86991331  3.81052172  14.27809800
6  -9.05435221  4.66688690  9.83869680
6  -8.35894635  5.79948583  9.60300369
1  -9.64164786  4.23989736  9.01803205
1  -8.34106137  6.23027972  8.59961680
1  -7.72735860  6.28065235  10.35054091
8  -0.97873707  -1.79302277  7.46673508
8  -8.39973034  -1.33428734  7.46086997
8  -7.02768140  1.34839666  10.47252592
8  -2.33396492  -4.39062461  10.55387192
74  -3.40741708  0.68999088  6.47342041
74  -5.99233762  -3.81777152  6.56046582
74  -3.61534438  0.87421173  11.42205097
74  -5.76323895  -3.85958037  11.47967472
74  -2.43264891  -2.59078340  6.40203799
74  -6.94388514  -0.53282020  6.37284322
74  -6.82296975  -0.24777479  11.56018102
74  -2.54394971  -2.72930328  11.60250220
8  -3.17063164  1.87303330  5.29315534
8  -6.12653592  -5.06906970  5.41928500
8  -2.69238944  1.71913383  12.57272819
8  -6.67939509  -4.66099008  12.66456397
8  -2.65807648  -0.91338959  5.58572491
8  -6.70505462  -2.26709529  5.62197459
8  -5.31410393  0.55275424  12.36093625
8  -4.05026258  -3.52655793  12.40420886
8  0.30524525  -0.00785649  9.28348032
8  -9.69717114  -3.04041258  9.32918080
8  -6.34705060  3.43011798  8.66692964
8  -3.00573327  -6.48867493  8.74794138
8  -1.78541534  0.75371992  7.47415018
8  -7.59964685  -3.88411369  7.54379507
8  -4.49692618  2.20009405  10.42928282
8  -4.87460879  -5.22791494  10.52622208
8  -1.60242690  -3.53959061  5.26003120
8  -7.82605895  0.27765501  5.18313058
8  -8.04924648  -0.16757312  12.73357890
8  -1.30326172  -2.85362393  12.75723567
74  -1.25141339  -0.52563433  8.83657192
74  -8.13811433  -2.53783218  8.87442178
74  -5.87103350  1.85809991  9.04525121
74  -3.49284059  -4.91421991  9.16522729
8  -4.21287369  -3.10923577  6.06957640
8  -5.15580476  -0.05891661  6.01232151
8  -6.17222643  -1.99605658  11.90774747
8  -3.16951329  -0.98193532  11.92995930
8  -4.35670021  1.58089766  7.83076169
8  -5.00536833  -4.67941884  7.92125427
8  -2.32706212  0.57216907  10.08130395
8  -7.05051175  -3.61395274  10.13170250
8  -2.56868211  -3.90622571  7.86670860
8  -6.81146256  0.79333912  7.80361699
8  -7.82824926  -1.17625673  10.13836843
8  -1.56268801  -1.86430304  10.13864030
8  -3.35779744  -1.15573330  8.00549028
8  -6.02400130  -1.95668566  8.03364948
8  -5.11774865  -0.20508439  9.94460263
8  -4.23616596  -2.84347664  9.97403267
19  -3.21245547  -6.13639043  5.64480923
19  -0.10700049  0.05599909  12.34512990
19  -9.28904524  -2.84578032  12.43605688
23  -4.68624697  -1.53634047  8.98746053

-c -h -mn -co -ag -ni -ni 0
def2svp
****
-n -o -f -cl 0
6-31+g(d)
****
-ce 0
sdd
****

-ce 0
sdd



