%chk=a.chk
%nprocshared=56 
%mem=96gb 
# def2svp wb97xd scrf=(smd,solvent=acetonitrile) g09default scf=(xqc,maxcycle=64) force  guess=read   nosymm

 Title Card 

-1 1
17  -9.71621174  8.27569777  10.55698109
6  -8.33585758  4.24025924  12.21898520
6  -9.13122631  3.92827843  11.10054152
6  -10.04136267  2.85973264  11.21279826
6  -10.20306162  2.17702042  12.41396186
6  -9.44502503  2.53585560  13.52967001
6  -8.49426085  3.55288352  13.41862492
1  -7.57741508  5.02329250  12.14880870
1  -10.63040251  2.56725697  10.33903790
1  -10.91978000  1.35502888  12.48043340
1  -9.58149388  2.01219243  14.47840243
1  -7.86986275  3.81120652  14.27762265
6  -9.05726678  4.66785956  9.83878103
6  -8.36555558  5.80294551  9.60427846
1  -9.64305485  4.23940851  9.01778540
1  -8.35032638  6.23638032  8.60206328
1  -7.73579508  6.28513117  10.35263670
8  -0.97818885  -1.79402014  7.46686276
8  -8.39881891  -1.33417716  7.46094673
8  -7.02689010  1.34842356  10.47240688
8  -2.33400891  -4.39162664  10.55398879
74  -3.40691598  0.68950500  6.47355002
74  -5.99184370  -3.81772644  6.56007488
74  -3.61475938  0.87332153  11.42184358
74  -5.76302100  -3.85999921  11.48020995
74  -2.43197472  -2.59133127  6.40235609
74  -6.94333360  -0.53289642  6.37302671
74  -6.82256483  -0.24792734  11.56005202
74  -2.54348302  -2.73048243  11.60233179
8  -3.17046851  1.87229416  5.29254724
8  -6.12573926  -5.06919678  5.41878549
8  -2.69110425  1.71763519  12.57214478
8  -6.67972309  -4.66083292  12.66475815
8  -2.65771119  -0.91411342  5.58612137
8  -6.70445666  -2.26709863  5.62181307
8  -5.31347165  0.55236446  12.36078285
8  -4.05010511  -3.52720873  12.40451658
8  0.30598898  -0.00871489  9.28335841
8  -9.69642041  -3.04088350  9.32928771
8  -6.34621765  3.43022729  8.66640349
8  -3.00671554  -6.48944917  8.74716685
8  -1.78482933  0.75282106  7.47403504
8  -7.59922225  -3.88403309  7.54340045
8  -4.49608756  2.19932286  10.42894973
8  -4.87447961  -5.22846019  10.52673922
8  -1.60189270  -3.53995425  5.26011519
8  -7.82504734  0.27837108  5.18295469
8  -8.04856137  -0.16797775  12.73338436
8  -1.30296093  -2.85416567  12.75705787
74  -1.25089254  -0.52650489  8.83663152
74  -8.13721623  -2.53821295  8.87437770
74  -5.87054642  1.85845752  9.04486183
74  -3.49322543  -4.91510109  9.16503274
8  -4.21243980  -3.10972684  6.07002740
8  -5.15510462  -0.05956971  6.01286059
8  -6.17176396  -1.99627335  11.90757419
8  -3.16975688  -0.98307113  11.92908134
8  -4.35608387  1.58086556  7.83058340
8  -5.00551814  -4.67972212  7.92151048
8  -2.32648984  0.57108002  10.08098590
8  -7.04977746  -3.61412831  10.13147007
8  -2.56850919  -3.90699084  7.86698462
8  -6.81099236  0.79374998  7.80338368
8  -7.82775251  -1.17639295  10.13833861
8  -1.56190590  -1.86528079  10.13868717
8  -3.35726485  -1.15632431  8.00606715
8  -6.02323754  -1.95697931  8.03370878
8  -5.11747122  -0.20565193  9.94439134
8  -4.23594067  -2.84424415  9.97409323
19  -3.21232985  -6.13594898  5.64496003
19  -0.10729163  0.05545305  12.34383107
19  -9.28851715  -2.84331732  12.43549801
23  -4.68576307  -1.53701434  8.98755169

-c -h -mn -co -ag -ni -ni 0
def2svp
****
-n -o -f -cl 0
6-31+g(d)
****
-ce 0
sdd
****

-ce 0
sdd



