%chk=b.chk
%nprocshared=56 
%mem=96gb 
# def2svp wb97xd scrf=(smd,solvent=acetonitrile) g09default scf=(xqc,maxcycle=64) force  guess=read   nosymm

 Title Card 

-1 1
17  -9.69538795  8.28025495  10.55581999
6  -8.33775578  4.24204294  12.21799984
6  -9.13412131  3.92956623  11.10037461
6  -10.04379162  2.86082370  11.21360029
6  -10.20345240  2.17748713  12.41460845
6  -9.44392081  2.53586344  13.52920160
6  -8.49416948  3.55379832  13.41770131
1  -7.58027555  5.02596403  12.14757360
1  -10.63503047  2.56962490  10.34087566
1  -10.92085287  1.35601140  12.48172151
1  -9.57931394  2.01215604  14.47818251
1  -7.86977147  3.81279926  14.27639185
6  -9.06382213  4.66996303  9.83886489
6  -8.38041642  5.81079514  9.60730788
1  -9.64640942  4.23842022  9.01723412
1  -8.37121195  6.25011505  8.60763365
1  -7.75469663  6.29506245  10.35734856
8  -0.97695149  -1.79629054  7.46709484
8  -8.39674114  -1.33393578  7.46111722
8  -7.02509369  1.34847122  10.47213289
8  -2.33410671  -4.39388074  10.55421583
74  -3.40565726  0.68877132  6.47357368
74  -5.99073151  -3.81787238  6.55905050
74  -3.61360731  0.87120028  11.42118486
74  -5.76227572  -3.86077181  11.48112487
74  -2.43044717  -2.59259538  6.40302954
74  -6.94240394  -0.53276466  6.37299016
74  -6.82127722  -0.24828319  11.55949435
74  -2.54268517  -2.73312259  11.60178222
8  -3.17005256  1.87040065  5.29158800
8  -6.12398729  -5.06931268  5.41782278
8  -2.68814422  1.71439883  12.57097745
8  -6.68054804  -4.66069538  12.66536726
8  -2.65691655  -0.91575764  5.58696858
8  -6.70312511  -2.26713872  5.62143438
8  -5.31201935  0.55150236  12.36044645
8  -4.04973441  -3.52871071  12.40521197
8  0.30750125  -0.01075234  9.28298595
8  -9.69451682  -3.04184413  9.32936346
8  -6.34451116  3.43077760  8.66528755
8  -3.00883383  -6.49134172  8.74548658
8  -1.78346059  0.75078674  7.47376651
8  -7.59828365  -3.88388102  7.54251986
8  -4.49417207  2.19766294  10.42819648
8  -4.87423349  -5.22973600  10.52785977
8  -1.60072990  -3.54068676  5.26026036
8  -7.82247407  0.27957557  5.18286455
8  -8.04717094  -0.16872711  12.73323226
8  -1.30223722  -2.85548463  12.75690386
74  -1.24944132  -0.52840645  8.83689927
74  -8.13549654  -2.53916881  8.87441271
74  -5.86929830  1.85880448  9.04422420
74  -3.49415745  -4.91689039  9.16471832
8  -4.21148292  -3.11083970  6.07101952
8  -5.15350310  -0.06104346  6.01409565
8  -6.17072825  -1.99677859  11.90722703
8  -3.17023104  -0.98560672  11.92707648
8  -4.35464920  1.58074254  7.83024122
8  -5.00588937  -4.68040920  7.92207137
8  -2.32514248  0.56865202  10.08023770
8  -7.04813473  -3.61451136  10.13094553
8  -2.56816717  -3.90866059  7.86757612
8  -6.80987488  0.79457548  7.80288866
8  -7.82657912  -1.17670921  10.13826061
8  -1.56013528  -1.86749379  10.13877234
8  -3.35601318  -1.15765424  8.00728533
8  -6.02157085  -1.95769951  8.03375120
8  -5.11673272  -0.20702199  9.94381621
8  -4.23549037  -2.84586653  9.97415510
19  -3.21205755  -6.13500983  5.64528226
19  -0.10797394  0.05415025  12.34087932
19  -9.28737278  -2.83778373  12.43422802
23  -4.68462715  -1.53848953  8.98803857

-c -h -mn -co -ag -ni -ni 0
def2svp
****
-n -o -f -cl 0
6-31+g(d)
****
-ce 0
sdd
****

-ce 0
sdd



