%chk=a.chk
%nprocshared=56 
%mem=96gb 
# def2svp wb97xd scrf=(smd,solvent=acetonitrile) g09default scf=(xqc,maxcycle=64) force  guess=read   nosymm

 Title Card 

-1 1
17  -9.68675166  8.28093504  10.55484198
6  -8.33860137  4.24292514  12.21761384
6  -9.13516775  3.93000436  11.10014586
6  -10.04488023  2.86142847  11.21393128
6  -10.20372517  2.17783626  12.41480148
6  -9.44327468  2.53586067  13.52898402
6  -8.49415626  3.55438258  13.41720287
1  -7.58193344  5.02765103  12.14707152
1  -10.63732323  2.57119111  10.34167585
1  -10.92142073  1.35667251  12.48226035
1  -9.57781650  2.01175082  14.47779829
1  -7.86978243  3.81372768  14.27586688
6  -9.06633489  4.67061743  9.83875327
6  -8.38638752  5.81382366  9.60867092
1  -9.64804771  4.23824234  9.01695420
1  -8.38017629  6.25628815  8.61046319
1  -7.76214875  6.29848928  10.35952837
8  -0.97650555  -1.79724983  7.46711882
8  -8.39574738  -1.33378826  7.46122805
8  -7.02430170  1.34842731  10.47209186
8  -2.33414089  -4.39474555  10.55432141
74  -3.40505323  0.68857369  6.47384472
74  -5.99030501  -3.81798565  6.55869452
74  -3.61314552  0.87044891  11.42072402
74  -5.76206781  -3.86128488  11.48160451
74  -2.42996098  -2.59288682  6.40328001
74  -6.94181129  -0.53283338  6.37288421
74  -6.82063718  -0.24847837  11.55941677
74  -2.54239861  -2.73423401  11.60175188
8  -3.16974888  1.86997581  5.29137613
8  -6.12338891  -5.06941341  5.41742755
8  -2.68692680  1.71316421  12.57036201
8  -6.68074484  -4.66084672  12.66546026
8  -2.65677054  -0.91629930  5.58733864
8  -6.70257979  -2.26722870  5.62124839
8  -5.31128545  0.55118324  12.36029173
8  -4.04963089  -3.52944152  12.40559066
8  0.30831148  -0.01173346  9.28259883
8  -9.69373089  -3.04218384  9.32917717
8  -6.34400216  3.43095808  8.66487839
8  -3.00963673  -6.49202741  8.74491897
8  -1.78280977  0.74990403  7.47363613
8  -7.59794887  -3.88378872  7.54216417
8  -4.49338537  2.19705018  10.42785455
8  -4.87405759  -5.23031644  10.52836390
8  -1.60031577  -3.54051050  5.26001187
8  -7.82128945  0.27986401  5.18252566
8  -8.04621001  -0.16878677  12.73341958
8  -1.30237269  -2.85612535  12.75708456
74  -1.24883773  -0.52934430  8.83702447
74  -8.13482238  -2.53951790  8.87440718
74  -5.86892735  1.85878528  9.04397381
74  -3.49447345  -4.91765078  9.16456890
8  -4.21119243  -3.11130476  6.07150489
8  -5.15279787  -0.06161815  6.01470692
8  -6.17019522  -1.99704038  11.90714789
8  -3.17053947  -0.98669355  11.92601872
8  -4.35401421  1.58058077  7.83031067
8  -5.00612818  -4.68071062  7.92240098
8  -2.32452853  0.56762902  10.07982639
8  -7.04738699  -3.61464654  10.13072459
8  -2.56816556  -3.90916063  7.86789981
8  -6.80938962  0.79476290  7.80275489
8  -7.82596149  -1.17683965  10.13827775
8  -1.55937610  -1.86848695  10.13880509
8  -3.35554038  -1.15819484  8.00789388
8  -6.02075299  -1.95808722  8.03377029
8  -5.11632397  -0.20761907  9.94361806
8  -4.23539404  -2.84658884  9.97430511
19  -3.21203927  -6.13459550  5.64549710
19  -0.10853728  0.05334224  12.33945138
19  -9.28679608  -2.83551579  12.43349615
23  -4.68412997  -1.53908092  8.98823899

-c -h -mn -co -ag -ni -ni 0
def2svp
****
-n -o -f -cl 0
6-31+g(d)
****
-ce 0
sdd
****

-ce 0
sdd



