%chk=a.chk
%nprocshared=56 
%mem=96gb 
# def2svp wb97xd scrf=(smd,solvent=acetonitrile) g09default scf=(xqc,maxcycle=64) force  guess=read   nosymm

 Title Card 

-1 1
17  -9.67889517  8.28062406  10.55353596
6  -8.33943370  4.24397149  12.21709930
6  -9.13600369  3.93032164  11.09981331
6  -10.04599150  2.86212259  11.21419328
6  -10.20398277  2.17835392  12.41505658
6  -9.44258024  2.53585131  13.52857315
6  -8.49413930  3.55506685  13.41681851
1  -7.58394455  5.02972408  12.14661881
1  -10.63980552  2.57315970  10.34246233
1  -10.92209565  1.35748212  12.48278372
1  -9.57584672  2.01098026  14.47721476
1  -7.86986040  3.81484137  14.27529198
6  -9.06853510  4.67103862  9.83855109
6  -8.39172242  5.81646494  9.61004168
1  -9.64984997  4.23830725  9.01663890
1  -8.38869118  6.26237666  8.61352917
1  -7.76860208  6.30099112  10.36173603
8  -0.97615006  -1.79815006  7.46705416
8  -8.39472155  -1.33361483  7.46135334
8  -7.02352416  1.34832224  10.47212954
8  -2.33416583  -4.39548442  10.55442948
74  -3.40436834  0.68866838  6.47415973
74  -5.98994664  -3.81818961  6.55842909
74  -3.61266745  0.86988964  11.42018795
74  -5.76178991  -3.86180597  11.48190496
74  -2.42961720  -2.59303085  6.40340799
74  -6.94114499  -0.53298255  6.37262322
74  -6.81988563  -0.24873950  11.55945489
74  -2.54237488  -2.73527779  11.60174612
8  -3.16934983  1.86977849  5.29155156
8  -6.12295703  -5.06954000  5.41709856
8  -2.68584374  1.71210773  12.56965072
8  -6.68091418  -4.66130140  12.66556020
8  -2.65680021  -0.91667464  5.58767635
8  -6.70208954  -2.26737935  5.62105149
8  -5.31047633  0.55092364  12.36013545
8  -4.04956968  -3.53021687  12.40601402
8  0.30914308  -0.01280938  9.28202680
8  -9.69308183  -3.04244420  9.32881967
8  -6.34367919  3.43090305  8.66462516
8  -3.01025018  -6.49267632  8.74449946
8  -1.78211877  0.74905054  7.47350091
8  -7.59769709  -3.88369051  7.54185554
8  -4.49265294  2.19656500  10.42751370
8  -4.87385681  -5.23091373  10.52884453
8  -1.60004379  -3.53989762  5.25954767
8  -7.82003367  0.27985771  5.18199868
8  -8.04501172  -0.16859148  12.73386590
8  -1.30276106  -2.85682349  12.75762221
74  -1.24814733  -0.53033408  8.83720800
74  -8.13413882  -2.53976871  8.87436388
74  -5.86877944  1.85879505  9.04374308
74  -3.49474997  -4.91822449  9.16448277
8  -4.21101955  -3.11174245  6.07198518
8  -5.15209293  -0.06210222  6.01534268
8  -6.16963772  -1.99733412  11.90716904
8  -3.17087450  -0.98770050  11.92486109
8  -4.35337135  1.58033477  7.83057610
8  -5.00642560  -4.68103202  7.92276986
8  -2.32388023  0.56669199  10.07935084
8  -7.04667632  -3.61476183  10.13053066
8  -2.56828897  -3.90946426  7.86822076
8  -6.80890311  0.79478256  7.80269606
8  -7.82528057  -1.17696604  10.13836086
8  -1.55862488  -1.86946153  10.13884340
8  -3.35510540  -1.15867370  8.00850442
8  -6.01987370  -1.95852230  8.03378422
8  -5.11584080  -0.20816980  9.94345441
8  -4.23540885  -2.84721352  9.97448353
19  -3.21210813  -6.13421613  5.64575624
19  -0.10930615  0.05233397  12.33795199
19  -9.28620089  -2.83345385  12.43264370
23  -4.68366189  -1.53971569  8.98849770

-c -h -mn -co -ag -ni -ni 0
def2svp
****
-n -o -f -cl 0
6-31+g(d)
****
-ce 0
sdd
****

-ce 0
sdd



