%chk=a.chk
%nprocshared=56 
%mem=96gb 
# def2svp wb97xd scrf=(smd,solvent=acetonitrile) g09default scf=(xqc,maxcycle=64) force  guess=read   nosymm

 Title Card 

-1 1
17  -9.66596430  8.27913958  10.55087071
6  -8.34108279  4.24588137  12.21625215
6  -9.13735888  3.93076710  11.09911838
6  -10.04805274  2.86351011  11.21462356
6  -10.20462056  2.17935051  12.41538092
6  -9.44104190  2.53584151  13.52787533
6  -8.49417668  3.55652825  13.41581405
1  -7.58800206  5.03406050  12.14583927
1  -10.64460511  2.57716690  10.34390473
1  -10.92341479  1.35921664  12.48377900
1  -9.57160734  2.00912933  14.47580277
1  -7.87002257  3.81716136  14.27424583
6  -9.07226230  4.67173146  9.83796942
6  -8.40060623  5.82067061  9.61260914
1  -9.65342115  4.23879424  9.01605882
1  -8.40340955  6.27323408  8.61926230
1  -7.77877616  6.30425030  10.36572160
8  -0.97562713  -1.79969621  7.46679833
8  -8.39283127  -1.33328739  7.46157625
8  -7.02211912  1.34803297  10.47232910
8  -2.33424128  -4.39663839  10.55462310
74  -3.40307665  0.68897161  6.47509239
74  -5.98938844  -3.81868201  6.55808473
74  -3.61177372  0.86911947  11.41903175
74  -5.76147430  -3.86294419  11.48244431
74  -2.42922495  -2.59304618  6.40345342
74  -6.93973447  -0.53338144  6.37201204
74  -6.81840421  -0.24927077  11.55975216
74  -2.54241264  -2.73704050  11.60199329
8  -3.16840849  1.87000637  5.29223904
8  -6.12239274  -5.06987720  5.41659932
8  -2.68397828  1.71050179  12.56833154
8  -6.68103781  -4.66239343  12.66552713
8  -2.65705907  -0.91715325  5.58821519
8  -6.70127318  -2.26775743  5.62072077
8  -5.30887135  0.55050268  12.35983462
8  -4.04952043  -3.53165609  12.40676258
8  0.31084029  -0.01488574  9.28087747
8  -9.69202304  -3.04272999  9.32795916
8  -6.34346011  3.43074177  8.66432188
8  -3.01110022  -6.49362982  8.74397568
8  -1.78078530  0.74752430  7.47326803
8  -7.59732695  -3.88351834  7.54139012
8  -4.49137593  2.19583598  10.42691695
8  -4.87348829  -5.23199486  10.52960908
8  -1.59973801  -3.53836705  5.25838131
8  -7.81770868  0.27948006  5.18072081
8  -8.04251848  -0.16793391  12.73498858
8  -1.30395219  -2.85812511  12.75891022
74  -1.24692520  -0.53226162  8.83752140
74  -8.13298659  -2.54005844  8.87423972
74  -5.86867258  1.85850705  9.04344229
74  -3.49508858  -4.91922520  9.16428809
8  -4.21087979  -3.11254253  6.07275745
8  -5.15081055  -0.06280922  6.01644589
8  -6.16863316  -1.99795578  11.90739834
8  -3.17141134  -0.98937881  11.92270961
8  -4.35218730  1.57986430  7.83128395
8  -5.00701743  -4.68170919  7.92345609
8  -2.32256530  0.56515585  10.07844398
8  -7.04548831  -3.61497577  10.13023443
8  -2.56867144  -3.90984988  7.86871474
8  -6.80801325  0.79463114  7.80265066
8  -7.82399712  -1.17722263  10.13865682
8  -1.55722198  -1.87119467  10.13897433
8  -3.35441046  -1.15949438  8.00962850
8  -6.01821444  -1.95939683  8.03380740
8  -5.11484056  -0.20914506  9.94316395
8  -4.23555633  -2.84829163  9.97488302
19  -3.21234514  -6.13363651  5.64625722
19  -0.11094231  0.05019916  12.33517291
19  -9.28516162  -2.83001729  12.43096394
23  -4.68282593  -1.54074268  8.98891499

-c -h -mn -co -ag -ni -ni 0
def2svp
****
-n -o -f -cl 0
6-31+g(d)
****
-ce 0
sdd
****

-ce 0
sdd



