%chk=b.chk
%nprocshared=56 
%mem=96gb 
# def2svp wb97xd scrf=(smd,solvent=acetonitrile) g09default scf=(xqc,maxcycle=64) force  guess=read   nosymm

 Title Card 

-1 1
17  -9.85639142  7.54527583  10.37187295
6  -8.31064284  4.25531139  12.23975296
6  -9.07536450  3.94078840  11.10145846
6  -10.00932051  2.89153638  11.19464412
6  -10.18388741  2.19127047  12.38207683
6  -9.42560869  2.52291179  13.50604044
6  -8.48426358  3.55128418  13.42743368
1  -7.57278682  5.06063432  12.19880879
1  -10.59909272  2.62858198  10.31085123
1  -10.91262791  1.37780936  12.43359514
1  -9.55912282  1.97354571  14.43910105
1  -7.88263836  3.80840678  14.30340749
6  -8.92585467  4.65159008  9.83349302
6  -8.11835790  5.68066479  9.59454223
1  -9.61156362  4.32154645  9.04048185
1  -8.04642936  6.11925793  8.59160129
1  -7.36783309  6.04209096  10.31195401
8  -0.98748407  -1.76161255  7.44680626
8  -8.43356395  -1.32585325  7.45377955
8  -7.07676882  1.35510925  10.50494090
8  -2.32270344  -4.36608707  10.57470226
74  -3.42449004  0.74942418  6.52233032
74  -6.02259526  -3.82742163  6.59938886
74  -3.64073736  0.92982387  11.38839821
74  -5.77190258  -3.87483130  11.45919035
74  -2.47299871  -2.53753549  6.37228770
74  -6.94480693  -0.54196351  6.35093229
74  -6.82357910  -0.24853915  11.60345875
74  -2.58085621  -2.69296665  11.63285327
8  -3.20871074  1.94390908  5.35438061
8  -6.13473062  -5.08064017  5.46679763
8  -2.70954439  1.76135571  12.53179798
8  -6.69480957  -4.67194232  12.63324980
8  -2.68572892  -0.86080931  5.58589502
8  -6.72703909  -2.27636033  5.62653178
8  -5.32744899  0.58110126  12.37046522
8  -4.06603357  -3.52205458  12.41757777
8  0.28899283  -0.00492429  9.28445197
8  -9.71049357  -3.01424790  9.34656879
8  -6.44881566  3.41226279  8.66577288
8  -2.96980648  -6.44223270  8.73754748
8  -1.79818561  0.78455470  7.48583191
8  -7.62969831  -3.87544110  7.55805568
8  -4.55150232  2.23824730  10.43008632
8  -4.85702206  -5.22339887  10.52764748
8  -1.65346844  -3.47747109  5.22840217
8  -7.81576653  0.26485856  5.15455518
8  -8.03300960  -0.18289117  12.78030095
8  -1.34612274  -2.78979458  12.78610716
74  -1.25386510  -0.53261819  8.83475810
74  -8.16995158  -2.49416467  8.87896411
74  -5.96744336  1.85573594  9.05950995
74  -3.45110723  -4.87840998  9.17217648
8  -4.24305069  -3.07098703  6.09063123
8  -5.17023333  -0.05397319  6.03924987
8  -6.16564553  -1.99019317  11.90394368
8  -3.21588024  -0.95883131  11.91065484
8  -4.39920584  1.58746675  7.86807051
8  -5.01127004  -4.64533706  7.95051395
8  -2.36756359  0.58812005  10.06008143
8  -7.04482719  -3.59445995  10.12052608
8  -2.57256416  -3.85964841  7.87123861
8  -6.85888486  0.78372465  7.81211755
8  -7.84381246  -1.16049373  10.15146294
8  -1.57809063  -1.84463887  10.14246522
8  -3.38814103  -1.13951784  8.03046591
8  -6.03152061  -1.93295333  8.05571642
8  -5.15222277  -0.20217922  9.93370720
8  -4.24253160  -2.80925864  9.96815765
19  -3.24621633  -6.07153106  5.70069153
19  -0.19596302  0.01824939  12.31483829
19  -9.21899946  -2.91924750  12.36841677
23  -4.70657029  -1.51739713  8.99531159

-c -h -mn -co -ag -ni -ni 0
def2svp
****
-n -o -f -cl 0
6-31+g(d)
****
-ce 0
sdd
****

-ce 0
sdd



