%chk=b.chk
%nprocshared=56 
%mem=96gb 
# def2svp wb97xd scrf=(smd,solvent=acetonitrile) g09default scf=(xqc,maxcycle=64) force  guess=read   nosymm

 Title Card 

-1 1
17  -9.65319879  8.27610263  10.54724768
6  -8.34337198  4.24866448  12.21496269
6  -9.13904847  3.93131884  11.09800042
6  -10.05085862  2.86546141  11.21507569
6  -10.20540015  2.18079452  12.41577134
6  -9.43867539  2.53566664  13.52661988
6  -8.49418251  3.55859771  13.41441862
1  -7.59399244  5.04041386  12.14497790
1  -10.65123272  2.58280891  10.34579885
1  -10.92536360  1.36179500  12.48521860
1  -9.56493547  2.00593996  14.47342984
1  -7.87036507  3.82068098  14.27267944
6  -9.07673895  4.67259620  9.83709860
6  -8.40988530  5.82494597  9.61570326
1  -9.65868381  4.24029895  9.01536258
1  -8.41985582  6.28613915  8.62667157
1  -7.78786636  6.30543569  10.37039180
8  -0.97523870  -1.80146539  7.46616244
8  -8.39047046  -1.33283753  7.46180272
8  -7.02037712  1.34743804  10.47289227
8  -2.33439020  -4.39767236  10.55485459
74  -3.40126876  0.68997342  6.47670670
74  -5.98891217  -3.81972121  6.55797232
74  -3.61034970  0.86874906  11.41737539
74  -5.76127282  -3.86459616  11.48269753
74  -2.42923601  -2.59272945  6.40292460
74  -6.93761847  -0.53410302  6.37080834
74  -6.81625107  -0.25015722  11.56067671
74  -2.54292075  -2.73891942  11.60263569
8  -3.16678434  1.87134937  5.29421775
8  -6.12213498  -5.07062275  5.41625312
8  -2.68183845  1.70916476  12.56661079
8  -6.68109842  -4.66450885  12.66530961
8  -2.65774394  -0.91733955  5.58869320
8  -6.70038761  -2.26844271  5.62041934
8  -5.30654431  0.55000709  12.35941947
8  -4.04959808  -3.53344048  12.40756832
8  0.31317687  -0.01788173  9.27933513
8  -9.69105247  -3.04259078  9.32657439
8  -6.34386768  3.43000602  8.66433399
8  -3.01142063  -6.49455630  8.74370860
8  -1.77896186  0.74565821  7.47305640
8  -7.59701660  -3.88333518  7.54106889
8  -4.48987070  2.19520572  10.42623191
8  -4.87306402  -5.23329609  10.53023609
8  -1.59983267  -3.53583242  5.25631587
8  -7.81465189  0.27822996  5.17857516
8  -8.03888021  -0.16661262  12.73706668
8  -1.30608523  -2.85976196  12.76133065
74  -1.24514462  -0.53496252  8.83797742
74  -8.13168330  -2.53995946  8.87401093
74  -5.86906474  1.85794404  9.04325310
74  -3.49516436  -4.92012595  9.16404044
8  -4.21104430  -3.11358152  6.07336132
8  -5.14917593  -0.06325825  6.01759020
8  -6.16754031  -1.99896943  11.90819834
8  -3.17171467  -0.99104574  11.92013094
8  -4.35067811  1.57934076  7.83257170
8  -5.00779124  -4.68287195  7.92420549
8  -2.32052562  0.56365200  10.07731014
8  -7.04438971  -3.61532217  10.13005143
8  -2.56940562  -3.91015361  7.86893806
8  -6.80687416  0.79412351  7.80265271
8  -7.82238889  -1.17762219  10.13943775
8  -1.55532201  -1.87322903  10.13933437
8  -3.35361262  -1.16037792  8.01093403
8  -6.01611045  -1.96061706  8.03382010
8  -5.11339930  -0.21020630  9.94281506
8  -4.23595991  -2.84938951  9.97537170
19  -3.21286941  -6.13324802  5.64688538
19  -0.11338321  0.04685243  12.33168463
19  -9.28408867  -2.82644694  12.42864442
23  -4.68182814  -1.54195361  8.98939500

-c -h -mn -co -ag -ni -ni 0
def2svp
****
-n -o -f -cl 0
6-31+g(d)
****
-ce 0
sdd
****

-ce 0
sdd



