%chk=b.chk
%nprocshared=56 
%mem=96gb 
# def2svp wb97xd scrf=(smd,solvent=acetonitrile) g09default scf=(xqc,maxcycle=64) force  guess=read   nosymm

 Title Card 

-1 1
17  -9.65071990  8.26849808  10.53549176
6  -8.36517107  4.27026092  12.20555154
6  -9.16231387  3.94388738  11.09213037
6  -10.07545434  2.88087032  11.21868568
6  -10.20812670  2.18756863  12.41742273
6  -9.41739242  2.53038571  13.51522629
6  -8.49224887  3.57062350  13.40132696
1  -7.63836252  5.08294033  12.14019298
1  -10.69854420  2.61263135  10.36082824
1  -10.93526807  1.37598987  12.49747509
1  -9.51239557  1.98137116  14.45441751
1  -7.86965755  3.84500132  14.25664080
6  -9.11161291  4.69011592  9.83412928
6  -8.43380024  5.83792483  9.62529158
1  -9.71344466  4.27491266  9.01766375
1  -8.46600739  6.33897267  8.65747892
1  -7.78118702  6.27718589  10.37938143
8  -0.97547490  -1.81290969  7.45945990
8  -8.37944749  -1.32754629  7.46214911
8  -7.01171762  1.33977335  10.48098597
8  -2.33272297  -4.39792550  10.55503662
74  -3.38732764  0.70382848  6.49306199
74  -5.99103860  -3.83402439  6.56433119
74  -3.59512954  0.87491198  11.40478990
74  -5.76624645  -3.87988012  11.47723476
74  -2.43800487  -2.58846277  6.38897533
74  -6.91844533  -0.54106347  6.35773636
74  -6.79799614  -0.25939622  11.57614012
74  -2.55023335  -2.74313790  11.61350743
8  -3.14925732  1.89388762  5.32025776
8  -6.12827859  -5.08339151  5.42140489
8  -2.66794956  1.71384367  12.55600517
8  -6.68155230  -4.68660540  12.65808837
8  -2.66168763  -0.91320843  5.58799797
8  -6.69508237  -2.27523203  5.62061958
8  -5.28802844  0.54424854  12.35892076
8  -4.05269864  -3.54082387  12.40895157
8  0.33052992  -0.04571277  9.27304697
8  -9.69162496  -3.02858277  9.31925765
8  -6.35822152  3.42083083  8.66934618
8  -2.99854938  -6.49563622  8.74529609
8  -1.76649074  0.73667374  7.47653615
8  -7.59702240  -3.88272276  7.54470677
8  -4.48250954  2.19404581  10.42365507
8  -4.86975448  -5.23842204  10.52602872
8  -1.60906873  -3.52379794  5.23644066
8  -7.79452889  0.26545099  5.16120375
8  -8.01395230  -0.16109352  12.75734348
8  -1.32078847  -2.86656485  12.77952633
74  -1.23130488  -0.55841515  8.83968017
74  -8.12997162  -2.52831658  8.87352492
74  -5.87908732  1.84954050  9.04585202
74  -3.48434439  -4.92099314  9.16114907
8  -4.21557411  -3.12052537  6.06937578
8  -5.13825411  -0.05818559  6.01819983
8  -6.16599374  -2.01036235  11.91924772
8  -3.16364586  -0.99307093  11.91474134
8  -4.34391692  1.58027321  7.84201496
8  -5.00794451  -4.69554180  7.92281250
8  -2.30202650  0.55942660  10.07466311
8  -7.04739763  -3.61934408  10.13252663
8  -2.57270074  -3.91353622  7.86143741
8  -6.80061139  0.78968478  7.80109890
8  -7.81514084  -1.18011838  10.15004913
8  -1.54325966  -1.88238007  10.14521061
8  -3.34847809  -1.16382725  8.01449956
8  -6.00788488  -1.96653160  8.03413374
8  -5.10456720  -0.21451280  9.94252546
8  -4.23677539  -2.85314690  9.97606341
19  -3.21857807  -6.13900014  5.64859763
19  -0.12670016  0.01498865  12.31764019
19  -9.28614527  -2.81907695  12.41351039
23  -4.67646645  -1.54593256  8.98994606

-c -h -mn -co -ag -ni -ni 0
def2svp
****
-n -o -f -cl 0
6-31+g(d)
****
-ce 0
sdd
****

-ce 0
sdd



