%chk=a.chk
%nprocshared=56 
%mem=96gb 
# def2svp wb97xd scrf=(smd,solvent=acetonitrile) g09default scf=(xqc,maxcycle=64) force  guess=read   nosymm

 Title Card 

-1 1
17  -9.67614802  8.27409848  10.53617123
6  -8.38238056  4.28508892  12.20036475
6  -9.18579031  3.95893692  11.09131484
6  -10.09452993  2.89242746  11.22256295
6  -10.20922312  2.19051112  12.41872363
6  -9.40510982  2.52737625  13.50863972
6  -8.49084331  3.57685252  13.39246345
1  -7.66610802  5.10687573  12.13531183
1  -10.72886892  2.62659326  10.37212947
1  -10.93449354  1.37768987  12.50396127
1  -9.48154139  1.96798292  14.44340352
1  -7.86337553  3.85407361  14.24319427
6  -9.14036268  4.71108169  9.83610548
6  -8.43996994  5.84508437  9.62531782
1  -9.76282213  4.31395479  9.02599724
1  -8.47091111  6.35471572  8.66213143
1  -7.76246520  6.25929888  10.37222526
8  -0.97500389  -1.82132833  7.45497436
8  -8.37477543  -1.32298650  7.46111503
8  -7.00772880  1.33359144  10.48735932
8  -2.32880405  -4.39779814  10.55515396
74  -3.37797076  0.71215574  6.50401046
74  -5.99451689  -3.84362706  6.57172502
74  -3.58424099  0.87954044  11.39701327
74  -5.76958720  -3.89050987  11.47022651
74  -2.44527507  -2.58700923  6.37792851
74  -6.90564646  -0.54531238  6.34956321
74  -6.78502301  -0.26594690  11.58794960
74  -2.55521213  -2.74394514  11.62144385
8  -3.13560277  1.90765601  5.33767775
8  -6.13584761  -5.09287024  5.42916048
8  -2.65821016  1.72025641  12.54771591
8  -6.68150923  -4.70281835  12.64960024
8  -2.66070453  -0.90939023  5.58725131
8  -6.69081575  -2.27959059  5.62119781
8  -5.27623980  0.54002121  12.36080279
8  -4.05487262  -3.54545738  12.40873767
8  0.34163077  -0.06795987  9.26950001
8  -9.69492230  -3.01324962  9.31735689
8  -6.37056012  3.41403036  8.67534360
8  -2.98459209  -6.49505911  8.74631721
8  -1.75868669  0.73254183  7.48189754
8  -7.59840392  -3.88167067  7.54883591
8  -4.47936536  2.19350902  10.42290799
8  -4.86598152  -5.24130252  10.52044972
8  -1.61819625  -3.52075090  5.22293976
8  -7.78090333  0.25930075  5.15126983
8  -7.99873663  -0.16322513  12.77087492
8  -1.32646139  -2.86997850  12.78810294
74  -1.22260451  -0.57548819  8.83902317
74  -8.13125468  -2.51680184  8.87415083
74  -5.88644323  1.84351287  9.04892007
74  -3.47240929  -4.92041814  9.15940915
8  -4.21848852  -3.12363185  6.06610440
8  -5.13060788  -0.05438632  6.01757164
8  -6.16470610  -2.01865819  11.92400036
8  -3.15704905  -0.99336562  11.91669727
8  -4.34117975  1.58138907  7.84736053
8  -5.00460179  -4.70241336  7.92080786
8  -2.29201942  0.55558479  10.07414873
8  -7.05148707  -3.62175667  10.13327113
8  -2.57141940  -3.91549761  7.85555765
8  -6.79741138  0.78661381  7.80027921
8  -7.81104967  -1.18006532  10.15598690
8  -1.53854443  -1.88830218  10.14837320
8  -3.34541026  -1.16601486  8.01443814
8  -6.00483631  -1.96826442  8.03487743
8  -5.09926027  -0.21732216  9.94423294
8  -4.23465972  -2.85503072  9.97555731
19  -3.22237945  -6.14527375  5.64862521
19  -0.12846608  -0.00926398  12.31627289
19  -9.29168747  -2.81931865  12.40390572
23  -4.67309302  -1.54769478  8.98988475

-c -h -mn -co -ag -ni -ni 0
def2svp
****
-n -o -f -cl 0
6-31+g(d)
****
-ce 0
sdd
****

-ce 0
sdd



