%chk=a.chk
%nprocshared=56 
%mem=96gb 
# def2svp wb97xd scrf=(smd,solvent=acetonitrile) g09default scf=(xqc,maxcycle=64) force  guess=read   nosymm

 Title Card 

-1 1
17  -9.68216840  8.27556671  10.53670524
6  -8.38588123  4.28811674  12.19951094
6  -9.19090616  3.96238146  11.09142559
6  -10.09841471  2.89487129  11.22349051
6  -10.20940265  2.19106120  12.41890679
6  -9.40292002  2.52692170  13.50744123
6  -8.49057502  3.57801976  13.39075079
1  -7.67137746  5.11135175  12.13417653
1  -10.73470806  2.62919465  10.37437214
1  -10.93367901  1.37737947  12.50493178
1  -9.47591467  1.96562592  14.44131400
1  -7.86161806  3.85516246  14.24039557
6  -9.14650023  4.71583800  9.83686462
6  -8.44087891  5.84649713  9.62490107
1  -9.77345916  4.32278282  9.02824146
1  -8.47087826  6.35662909  8.66198953
1  -7.75858530  6.25619993  10.37005396
8  -0.97480579  -1.82294306  7.45406598
8  -8.37398485  -1.32210363  7.46077806
8  -7.00703963  1.33235407  10.48865817
8  -2.32788276  -4.39792389  10.55524416
74  -3.37618962  0.71353467  6.50609505
74  -5.99529306  -3.84527422  6.57335555
74  -3.58214975  0.88031989  11.39563758
74  -5.77004228  -3.89253021  11.46860784
74  -2.44663138  -2.58691221  6.37575839
74  -6.90325746  -0.54605743  6.34816216
74  -6.78250275  -0.26721046  11.59019905
74  -2.55611477  -2.74411450  11.62290396
8  -3.13286863  1.90999757  5.34088955
8  -6.13751841  -5.09463419  5.43094112
8  -2.65627971  1.72150463  12.54593990
8  -6.68144431  -4.70604108  12.64768750
8  -2.66026153  -0.90862351  5.58716900
8  -6.68995243  -2.28036250  5.62135192
8  -5.27403546  0.53928109  12.36130789
8  -4.05521381  -3.54652594  12.40862804
8  0.34364316  -0.07251508  9.26873400
8  -9.69576207  -3.00993770  9.31721884
8  -6.37301022  3.41264025  8.67674063
8  -2.98158978  -6.49488716  8.74645344
8  -1.75719798  0.73179089  7.48309082
8  -7.59879944  -3.88140082  7.54969239
8  -4.47887695  2.19338042  10.42283231
8  -4.86513703  -5.24195676  10.51924258
8  -1.62013765  -3.52035382  5.22035637
8  -7.77821130  0.25834805  5.14943436
8  -7.99582048  -0.16404891  12.77347533
8  -1.32729775  -2.87070099  12.78956686
74  -1.22088362  -0.57878450  8.83880425
74  -8.13147557  -2.51442782  8.87428469
74  -5.88777662  1.84241913  9.04960884
74  -3.46990221  -4.92030953  9.15911452
8  -4.21901243  -3.12407300  6.06557422
8  -5.12907310  -0.05380121  6.01751078
8  -6.16422261  -2.02023460  11.92457158
8  -3.15583642  -0.99348835  11.91733964
8  -4.34069760  1.58151518  7.84837136
8  -5.00379269  -4.70342441  7.92053434
8  -2.29036550  0.55461376  10.07402211
8  -7.05220926  -3.62215378  10.13321036
8  -2.57091015  -3.91576769  7.85450865
8  -6.79680592  0.78594388  7.80023604
8  -7.81022946  -1.17990625  10.15696473
8  -1.53798366  -1.88960320  10.14881636
8  -3.34483217  -1.16649021  8.01430053
8  -6.00428982  -1.96848559  8.03509714
8  -5.09821548  -0.21790185  9.94469025
8  -4.23408156  -2.85541906  9.97545895
19  -3.22310972  -6.14656627  5.64859669
19  -0.12810833  -0.01411293  12.31666084
19  -9.29297139  -2.81956125  12.40200170
23  -4.67245983  -1.54808305  8.98990889

-c -h -mn -co -ag -ni -ni 0
def2svp
****
-n -o -f -cl 0
6-31+g(d)
****
-ce 0
sdd
****

-ce 0
sdd



