%chk=a.chk
%nprocshared=56 
%mem=96gb 
# def2svp wb97xd scrf=(smd,solvent=acetonitrile) g09default scf=(xqc,maxcycle=64) force  guess=read   nosymm

 Title Card 

-1 1
17  -9.69398329  8.27849118  10.53814758
6  -8.39224138  4.29364102  12.19818478
6  -9.20055214  3.96926507  11.09221618
6  -10.10549485  2.89954185  11.22514943
6  -10.20963144  2.19191866  12.41926245
6  -9.39940595  2.52638216  13.50531189
6  -8.49008945  3.57996174  13.38786811
1  -7.68026953  5.11892409  12.13199695
1  -10.74469160  2.63372607  10.37833620
1  -10.93117847  1.37588440  12.50603019
1  -9.46677418  1.96193179  14.43775825
1  -7.85771258  3.85597247  14.23526435
6  -9.15802997  4.72523600  9.83878145
6  -8.44221402  5.84881052  9.62353692
1  -9.79359100  4.33998005  9.03318812
1  -8.46971961  6.35826837  8.66013750
1  -7.75167305  6.25145069  10.36511768
8  -0.97426335  -1.82563738  7.45243391
8  -8.37276694  -1.32061502  7.45998976
8  -7.00595364  1.33019233  10.49097883
8  -2.32609122  -4.39848366  10.55550729
74  -3.37314933  0.71559225  6.50947899
74  -5.99673135  -3.84775199  6.57637418
74  -3.57868365  0.88129665  11.39339998
74  -5.77060761  -3.89606557  11.46561426
74  -2.44897557  -2.58680192  6.37228359
74  -6.89932156  -0.54710283  6.34602378
74  -6.77819087  -0.26934875  11.59397628
74  -2.55742430  -2.74447837  11.62529267
8  -3.12811660  1.91332119  5.34620379
8  -6.14064030  -5.09746027  5.43443886
8  -2.65277800  1.72362938  12.54276176
8  -6.68114175  -4.71154803  12.64382175
8  -2.65913516  -0.90734943  5.58712261
8  -6.68845068  -2.28152847  5.62172343
8  -5.27039545  0.53814940  12.36238434
8  -4.05562548  -3.54867689  12.40830907
8  0.34717778  -0.08057551  9.26740695
8  -9.69716887  -3.00367661  9.31729281
8  -6.37722061  3.41025631  8.67945185
8  -2.97598623  -6.49458849  8.74648938
8  -1.75465159  0.73050924  7.48534009
8  -7.59968201  -3.88084241  7.55121693
8  -4.47817555  2.19306634  10.42282808
8  -4.86352680  -5.24329011  10.51697050
8  -1.62356411  -3.52009817  5.21576929
8  -7.77347681  0.25709705  5.14646919
8  -7.99082438  -0.16612956  12.77788320
8  -1.32841272  -2.87210595  12.79175268
74  -1.21826159  -0.58451235  8.83819368
74  -8.13213655  -2.51030895  8.87462863
74  -5.88977958  1.84053388  9.05102347
74  -3.46535118  -4.92005752  9.15866510
8  -4.21984952  -3.12459244  6.06483706
8  -5.12638109  -0.05310621  6.01754562
8  -6.16293311  -2.02286392  11.92496835
8  -3.15385020  -0.99382526  11.91883519
8  -4.33993660  1.58157337  7.85010453
8  -5.00222434  -4.70458713  7.92031295
8  -2.28791190  0.55255598  10.07378570
8  -7.05323011  -3.62269081  10.13272956
8  -2.56963689  -3.91608869  7.85286659
8  -6.79574023  0.78466029  7.80036450
8  -7.80874545  -1.17940252  10.15837752
8  -1.53756704  -1.89213165  10.14931219
8  -3.34393751  -1.16743735  8.01395036
8  -6.00346998  -1.96873629  8.03558258
8  -5.09638695  -0.21899293  9.94564623
8  -4.23283622  -2.85618600  9.97533280
19  -3.22436866  -6.14888331  5.64851039
19  -0.12632829  -0.02264724  12.31839987
19  -9.29546467  -2.82024956  12.39861732
23  -4.67124339  -1.54877330  8.99000971

-c -h -mn -co -ag -ni -ni 0
def2svp
****
-n -o -f -cl 0
6-31+g(d)
****
-ce 0
sdd
****

-ce 0
sdd



