%chk=a.chk
%nprocshared=56 
%mem=96gb 
# def2svp wb97xd scrf=(smd,solvent=acetonitrile) g09default scf=(xqc,maxcycle=64) force  guess=read   nosymm

 Title Card 

-1 1
17  -9.90381219  7.65625486  10.40175996
6  -8.31468609  4.25229052  12.23832344
6  -9.06714888  3.93208075  11.09792419
6  -10.00843687  2.89249104  11.19742886
6  -10.18460280  2.19316881  12.38957578
6  -9.42772782  2.52047873  13.51161493
6  -8.48829430  3.55083383  13.43044905
1  -7.57621835  5.05762956  12.19902077
1  -10.59693416  2.62859849  10.31627870
1  -10.91211449  1.37906635  12.43397531
1  -9.55884891  1.96861662  14.44635772
1  -7.88382455  3.80858095  14.30283152
6  -8.91173171  4.62205772  9.81634723
6  -8.08678478  5.64559610  9.57388615
1  -9.61032154  4.31615396  9.03115188
1  -8.05616376  6.12420848  8.59435942
1  -7.38369356  6.03877362  10.31125975
8  -1.01249303  -1.75969475  7.45628323
8  -8.40793127  -1.32823420  7.46117576
8  -7.05980539  1.33727816  10.49736001
8  -2.33906705  -4.34763319  10.56636477
74  -3.43297817  0.75131756  6.51281634
74  -6.01326358  -3.82860310  6.59152057
74  -3.63512008  0.92290003  11.39682729
74  -5.77775290  -3.86819393  11.46580896
74  -2.46960412  -2.54662371  6.37378283
74  -6.94942481  -0.53046425  6.34933189
74  -6.83314217  -0.25310190  11.60243074
74  -2.57102694  -2.69049189  11.63157407
8  -3.20767083  1.95634794  5.34660595
8  -6.13600418  -5.09060953  5.46072232
8  -2.70193778  1.76893298  12.53746244
8  -6.70289963  -4.67876322  12.63914610
8  -2.69364375  -0.86318870  5.60427861
8  -6.71956381  -2.27076336  5.64587241
8  -5.32375420  0.57078632  12.35392740
8  -4.06808115  -3.51388521  12.39961903
8  0.29965097  -0.00528234  9.28699042
8  -9.72203257  -3.01395146  9.34885630
8  -6.43601323  3.41908419  8.64724335
8  -2.96303321  -6.45044632  8.73535738
8  -1.81422371  0.77134692  7.49091122
8  -7.61434286  -3.86215975  7.56517087
8  -4.55456227  2.21674526  10.42277583
8  -4.85517918  -5.20304187  10.52075048
8  -1.65064132  -3.48212327  5.21785457
8  -7.81935660  0.27270134  5.14185648
8  -8.03913770  -0.18601105  12.79083488
8  -1.33955340  -2.78920598  12.79741968
74  -1.25495888  -0.52250649  8.84354408
74  -8.17035512  -2.50441234  8.88627963
74  -5.95619980  1.85868834  9.05035633
74  -3.45932274  -4.88341321  9.16445618
8  -4.24311288  -3.07741760  6.08853278
8  -5.17114124  -0.04814884  6.03615861
8  -6.17160960  -1.99361845  11.90549873
8  -3.20905545  -0.95530327  11.91207096
8  -4.40184157  1.59127203  7.86383707
8  -5.00670370  -4.65003601  7.94684028
8  -2.36027072  0.58764089  10.06357957
8  -7.05174016  -3.59478278  10.12318295
8  -2.57455262  -3.86008941  7.86738919
8  -6.85667343  0.78273341  7.80897591
8  -7.84304859  -1.16338238  10.15527959
8  -1.57860650  -1.84342632  10.14579385
8  -3.40112033  -1.12742448  8.02450261
8  -6.01864299  -1.94856997  8.05208184
8  -5.13037938  -0.20675040  9.94226949
8  -4.26031517  -2.80889755  9.97373609
19  -3.24264592  -6.08372525  5.69178563
19  -0.18399699  0.02347079  12.32377656
19  -9.23202163  -2.92266787  12.37861763
23  -4.70552797  -1.51948996  8.99585557

-c -h -mn -co -ag -ni -ni 0
def2svp
****
-n -o -f -cl 0
6-31+g(d)
****
-ce 0
sdd
****

-ce 0
sdd



