%chk=b.chk
%nprocshared=56 
%mem=96gb 
# def2svp wb97xd scrf=(smd,solvent=acetonitrile) g09default scf=(xqc,maxcycle=64) force  guess=read   nosymm

 Title Card 

-1 1
17  -9.92915895  7.71794554  10.41818721
6  -8.31318082  4.24981213  12.23876723
6  -9.06352668  3.92442148  11.09447240
6  -10.00751155  2.88934533  11.19997506
6  -10.18668032  2.19364866  12.39147435
6  -9.42849917  2.52012027  13.51496153
6  -8.48996332  3.55140820  13.43134392
1  -7.57765973  5.05570679  12.19925695
1  -10.59720158  2.62698217  10.31820410
1  -10.91330335  1.37937109  12.43520157
1  -9.55822745  1.96717149  14.44845927
1  -7.88473607  3.80970549  14.30304627
6  -8.91001086  4.61533483  9.81355315
6  -8.07967690  5.63717836  9.56593069
1  -9.60688821  4.30811873  9.02481908
1  -8.05970057  6.12472125  8.59105761
1  -7.38696707  6.03382524  10.31204485
8  -1.01759024  -1.76156194  7.46057321
8  -8.40247707  -1.32663650  7.46470156
8  -7.05768450  1.33416214  10.49260921
8  -2.34051172  -4.34293867  10.56254871
74  -3.43444302  0.74953683  6.50773175
74  -6.00997547  -3.82604003  6.58944497
74  -3.63506315  0.91822613  11.39977605
74  -5.77818552  -3.86577493  11.46770427
74  -2.46965204  -2.54739529  6.37748292
74  -6.95092417  -0.52837153  6.35012033
74  -6.83380716  -0.25442093  11.59898494
74  -2.56925097  -2.69039236  11.62943118
8  -3.20763712  1.95646582  5.34673118
8  -6.13643822  -5.09068281  5.46057827
8  -2.70184945  1.76970749  12.53724632
8  -6.70316555  -4.67915291  12.63863980
8  -2.69698081  -0.86432802  5.60442364
8  -6.71717555  -2.26848763  5.64535016
8  -5.32313744  0.56632957  12.35479557
8  -4.06867727  -3.51040250  12.39981445
8  0.30018572  -0.00646302  9.28633169
8  -9.72311556  -3.01266681  9.34767024
8  -6.42592956  3.41791703  8.63870523
8  -2.96162446  -6.45005812  8.73614678
8  -1.81789901  0.77325226  7.49160884
8  -7.61050536  -3.86405174  7.56670068
8  -4.55116342  2.21329633  10.42096637
8  -4.85838241  -5.20205551  10.51896275
8  -1.65063665  -3.48136396  5.21626447
8  -7.81870729  0.27316933  5.14089107
8  -8.03889688  -0.18694716  12.79208986
8  -1.33983735  -2.78949588  12.79888162
74  -1.25986446  -0.51864786  8.84551703
74  -8.16567842  -2.50796835  8.88730597
74  -5.94819025  1.85739522  9.04726973
74  -3.46420731  -4.88297974  9.16223699
8  -4.24211464  -3.08361379  6.08397554
8  -5.17315413  -0.04184506  6.03086956
8  -6.17763449  -1.99632125  11.91055476
8  -3.20213177  -0.95245411  11.91631080
8  -4.40258765  1.59578714  7.85903540
8  -5.00417770  -4.65721938  7.94257028
8  -2.35312605  0.59013557  10.06780938
8  -7.05844136  -3.59730947  10.12747761
8  -2.57544535  -3.86275390  7.86371624
8  -6.85538405  0.78467625  7.80638772
8  -7.84471144  -1.16589892  10.15892276
8  -1.57643800  -1.84155383  10.14908849
8  -3.39803439  -1.12314922  8.01870895
8  -6.02192447  -1.95478065  8.04775151
8  -5.12687776  -0.20260478  9.94973834
8  -4.26250046  -2.81455117  9.97940796
19  -3.24036382  -6.09192217  5.68578615
19  -0.17614211  0.02694893  12.32970292
19  -9.24064411  -2.92486889  12.38551065
23  -4.70497252  -1.52010131  8.99555988

-c -h -mn -co -ag -ni -ni 0
def2svp
****
-n -o -f -cl 0
6-31+g(d)
****
-ce 0
sdd
****

-ce 0
sdd



