%chk=a.chk
%nprocshared=56 
%mem=96gb 
# pbe1pbe em=gd3bj genecp g09default scf=(xqc,maxcycle=64) stable=opt  nosymm

 Title Card 

0 1
6  -0.00000300  0.66074800  0.00023800
6  -1.20002000  1.36810400  0.00006100
6  -1.22726700  2.76303900  -0.00011500
6  0.00000000  3.44174000  -0.00014900
6  1.22726400  2.76303500  0.00002300
6  1.20001500  1.36809900  0.00018200
1  -2.15842100  3.33313300  -0.00029800
1  0.00000100  4.53583300  -0.00030400
1  2.15841700  3.33312900  -0.00003600
6  3.64589000  0.57313700  0.00004000
6  1.88180300  -0.88664100  0.00013600
6  4.14881100  -0.74536300  -0.00007500
6  4.51812800  1.66227600  0.00003700
6  5.51457600  -1.01248300  -0.00018800
6  5.88773600  1.39360300  -0.00009700
1  4.15451300  2.69021000  0.00015400
6  6.38083700  0.08171400  -0.00020800
1  5.89336600  -2.03749600  -0.00025800
1  6.59179600  2.23083300  -0.00010300
1  7.46135100  -0.08823700  -0.00030500
6  -3.64589000  0.57313800  -0.00004200
6  -1.88179000  -0.88663300  -0.00003200
6  -4.14880300  -0.74536500  -0.00005000
6  -4.51813000  1.66227400  -0.00001600
6  -5.51456600  -1.01248900  -0.00003700
6  -5.88773800  1.39359700  -0.00001400
1  -4.15451400  2.69020800  0.00002600
6  -6.38083200  0.08170600  -0.00002900
1  -5.89335300  -2.03750400  -0.00003100
1  -6.59180100  2.23082500  0.00000800
1  -7.46134600  -0.08825000  -0.00002700
7  -2.27245300  0.44451400  -0.00002000
7  -3.05024000  -1.58686700  -0.00007700
7  2.27245100  0.44450600  0.00018100
7  3.05025200  -1.58686900  -0.00004000
6  3.13978400  -3.02154300  -0.00004400
1  3.67074600  -3.38192800  -0.89850500
1  3.67022200  -3.38199900  0.89870300
1  2.11991400  -3.43362400  -0.00036700
6  -3.13976500  -3.02154000  -0.00002800
1  -3.67009000  -3.38197100  0.89879500
1  -3.67083600  -3.38195800  -0.89841300
1  -2.11989300  -3.43361800  -0.00046600
27  -0.00001300  -1.15294400  0.00013200

-c -h -o -n 0
6-31g(d)
****
-co 0
sdd
****

-co 0
sdd



