%chk=b.chk
%nprocshared=56 
%mem=96gb 
# pbe1pbe em=gd3bj genecp g09default scf=(xqc,maxcycle=64) force  guess=read   nosymm

 Title Card 

0 3
6  0.00000163  0.64166205  0.00013142
6  -1.19685699  1.35853654  0.00004524
6  -1.22387673  2.75158467  -0.00000336
6  0.00000386  3.42712370  0.00001472
6  1.22387815  2.75158446  0.00004752
6  1.19686577  1.35853418  0.00009104
1  -2.14744226  3.32200056  -0.00004799
1  0.00000104  4.51736777  -0.00001088
1  2.14744527  3.32200144  0.00004839
6  3.64657992  0.57382116  -0.00002017
6  1.88350438  -0.89518853  0.00011542
6  4.16117716  -0.73942975  -0.00011081
6  4.51928014  1.66347524  -0.00005021
6  5.52969774  -1.00120256  -0.00020902
6  5.89073420  1.40107435  -0.00016727
1  4.15984315  2.68440452  0.00001439
6  6.38941877  0.09313776  -0.00023950
1  5.90912485  -2.01899922  -0.00025166
1  6.58783150  2.23319868  -0.00019682
1  7.46369219  -0.07145288  -0.00032112
6  -3.64658314  0.57382191  -0.00003139
6  -1.88349236  -0.89519152  0.00004960
6  -4.16116623  -0.73943324  -0.00006830
6  -4.51927392  1.66346242  -0.00004791
6  -5.52969955  -1.00121124  -0.00010628
6  -5.89073690  1.40106811  -0.00009536
1  -4.15984256  2.68440108  -0.00002061
6  -6.38940904  0.09312793  -0.00011986
1  -5.90911765  -2.01900648  -0.00011179
1  -6.58783006  2.23318788  -0.00010989
1  -7.46368954  -0.07146407  -0.00014917
7  -2.26890843  0.43449916  0.00001823
7  -3.06636891  -1.58573943  -0.00003909
7  2.26890969  0.43450481  0.00010109
7  3.06637182  -1.58572798  -0.00005244
6  3.17086698  -3.02173788  -0.00000034
1  3.70429599  -3.37309848  -0.89113903
1  3.70387946  -3.37309118  0.89139676
1  2.16307670  -3.44003537  -0.00023861
6  -3.17085709  -3.02173726  0.00003786
1  -3.70380889  -3.37308652  0.89147587
1  -3.70434640  -3.37311539  -0.89106056
1  -2.16306770  -3.44003648  -0.00026563
27  -0.00000003  -1.16351803  0.00003741

-c -h -o -n 0
6-31g(d)
****
-co 0
sdd
****

-co 0
sdd




