%chk=b.chk
%nprocshared=56 
%mem=96gb 
# pbe1pbe em=gd3bj genecp g09default scf=(xqc,maxcycle=64) force  guess=read   nosymm

 Title Card 

0 3
6  0.00000232  0.58766493  0.00012052
6  -1.16067299  1.36109581  0.00005751
6  -1.21059989  2.75454885  -0.00000118
6  0.00000411  3.44848374  0.00001454
6  1.21060282  2.75454886  0.00004979
6  1.16068230  1.36109338  0.00010659
1  -2.14020541  3.31829844  -0.00005001
1  0.00000145  4.53856640  -0.00001045
1  2.14020891  3.31829894  0.00004748
6  3.63459326  0.56879422  -0.00001933
6  1.87797208  -0.89470881  0.00012359
6  4.15878816  -0.73675772  -0.00012148
6  4.51290352  1.66151182  -0.00004856
6  5.52840446  -1.00108110  -0.00021485
6  5.87868380  1.40033504  -0.00016577
1  4.15832777  2.68499999  0.00001590
6  6.38655376  0.08876286  -0.00023796
1  5.91030753  -2.01890382  -0.00025411
1  6.58108129  2.23038122  -0.00019765
1  7.46187360  -0.07173863  -0.00031862
6  -3.63459553  0.56879282  -0.00002983
6  -1.87796109  -0.89471236  0.00004264
6  -4.15877817  -0.73676096  -0.00007159
6  -4.51289748  1.66149994  -0.00004572
6  -5.52840627  -1.00109036  -0.00010906
6  -5.87868665  1.40032881  -0.00009385
1  -4.15832733  2.68499594  -0.00001962
6  -6.38654457  0.08875360  -0.00011846
1  -5.91030100  -2.01891124  -0.00011413
1  -6.58108012  2.23037037  -0.00011105
1  -7.46187101  -0.07174991  -0.00014763
7  -2.25731904  0.41746639  0.00002186
7  -3.05108451  -1.58032621  -0.00003964
7  2.25732126  0.41747327  0.00011006
7  3.05108864  -1.58031548  -0.00005719
6  3.16450180  -3.02100592  -0.00000431
1  3.70353059  -3.36578616  -0.88973296
1  3.70312068  -3.36577001  0.88998590
1  2.15678718  -3.43701322  -0.00023011
6  -3.16449236  -3.02100621  0.00003374
1  -3.70305053  -3.36576847  0.89006431
1  -3.70358099  -3.36580143  -0.88965509
1  -2.15677908  -3.43701370  -0.00025692
27  -0.00000122  -1.14676715  0.00002255

-c -h -o -n 0
6-31g(d)
****
-co 0
sdd
****

-co 0
sdd




