%chk=b.chk
%nprocshared=56 
%mem=96gb 
# pbe1pbe em=gd3bj genecp g09default scf=(xqc,maxcycle=64) force  guess=read   nosymm

 Title Card 

0 3
6  0.00000223  0.69217150  0.00012604
6  -1.23430638  1.35739118  0.00004228
6  -1.23963108  2.74637587  -0.00000623
6  0.00000204  3.40799233  0.00001447
6  1.23963383  2.74637594  0.00004420
6  1.23431069  1.35739132  0.00008476
1  -2.15448139  3.32703330  -0.00004705
1  0.00000083  4.49588682  -0.00001069
1  2.15448302  3.32703392  0.00004792
6  3.66164534  0.57915784  -0.00002157
6  1.88808618  -0.89896363  0.00011283
6  4.16580187  -0.73779331  -0.00010227
6  4.52550881  1.66368391  -0.00005222
6  5.52991984  -1.00149935  -0.00020302
6  5.90205303  1.40088573  -0.00016853
1  4.16224470  2.68476157  0.00001275
6  6.39457012  0.09867837  -0.00024055
1  5.90885660  -2.01933247  -0.00024867
1  6.59648929  2.23657166  -0.00019625
1  7.46651883  -0.07122365  -0.00032391
6  -3.66164343  0.57915342  -0.00003463
6  -1.88808168  -0.89896588  0.00006372
6  -4.16579518  -0.73779775  -0.00006750
6  -4.52550631  1.66367737  -0.00005028
6  -5.52991637  -1.00150763  -0.00010378
6  -5.90205312  1.40087833  -0.00009681
1  -4.16224452  2.68475673  -0.00002171
6  -6.39456414  0.09866908  -0.00012102
1  -5.90884928  -2.01934031  -0.00010924
1  -6.59648846  2.23656181  -0.00010886
1  -7.46651457  -0.07123462  -0.00015065
7  -2.27797772  0.45254399  0.00001590
7  -3.07700894  -1.59123206  -0.00004071
7  2.27798168  0.45254747  0.00009179
7  3.07701660  -1.59122769  -0.00004964
6  3.17773149  -3.02212513  0.00000286
1  3.70565742  -3.38065964  -0.89235477
1  3.70523289  -3.38066101  0.89261853
1  2.16971742  -3.44291584  -0.00024780
6  -3.17772186  -3.02212844  0.00004116
1  -3.70516184  -3.38065327  0.89269828
1  -3.70570756  -3.38067803  -0.89227505
1  -2.16970819  -3.44291696  -0.00027488
27  0.00000322  -1.18324573  0.00005077

-c -h -o -n 0
6-31g(d)
****
-co 0
sdd
****

-co 0
sdd




