%chk=a.chk
%nprocshared=56 
%mem=96gb 
# pbe1pbe em=gd3bj genecp g09default scf=(xqc,maxcycle=64) force  guess=read   nosymm

 Title Card 

0 1
6  0.00000183  0.74476306  0.00011995
6  -1.27035164  1.35523659  0.00003734
6  -1.25256543  2.74290435  -0.00000794
6  0.00000130  3.38708689  0.00001409
6  1.25256731  2.74290485  0.00004198
6  1.27035482  1.35523742  0.00007649
1  -2.16173600  3.33172044  -0.00004593
1  0.00000050  4.47471753  -0.00001069
1  2.16173696  3.33172124  0.00004768
6  3.67455125  0.58460646  -0.00002231
6  1.89388499  -0.90058445  0.00011337
6  4.16872753  -0.73926399  -0.00009385
6  4.53217301  1.66498423  -0.00005404
6  5.53140988  -1.00122594  -0.00019721
6  5.91425329  1.40182244  -0.00016997
1  4.16459473  2.68461589  0.00001113
6  6.39873843  0.10302815  -0.00024154
1  5.90830981  -2.01952966  -0.00024579
1  6.60449386  2.23948588  -0.00019567
1  7.46931594  -0.07096428  -0.00032658
6  -3.67454896  0.58460249  -0.00003678
6  -1.89388121  -0.90058577  0.00008015
6  -4.16872054  -0.73926807  -0.00006658
6  -4.53217058  1.66497825  -0.00005256
6  -5.53140585  -1.00123400  -0.00010136
6  -5.91425316  1.40181475  -0.00009840
1  -4.16459461  2.68461125  -0.00002275
6  -6.39873253  0.10301868  -0.00012211
1  -5.90830192  -2.01953743  -0.00010673
1  -6.60449302  2.23947628  -0.00010785
1  -7.46931142  -0.07097522  -0.00015210
7  -2.28932662  0.46968168  0.00001291
7  -3.09143831  -1.59705800  -0.00004420
7  2.28933028  0.46968415  0.00008236
7  3.09144563  -1.59705418  -0.00004879
6  3.18452792  -3.02243992  0.00000618
1  3.70692961  -3.38824140  -0.89361163
1  3.70649734  -3.38825145  0.89388141
1  2.17635615  -3.44597481  -0.00025669
6  -3.18451773  -3.02244336  0.00004465
1  -3.70642595  -3.38824064  0.89396205
1  -3.70697970  -3.38826133  -0.89353106
1  -2.17634624  -3.44597636  -0.00028392
27  0.00000496  -1.20151546  0.00006329

-c -h -o -n 0
6-31g(d)
****
-co 0
sdd
****

-co 0
sdd



