%chk=a.chk
%nprocshared=56 
%mem=96gb 
# pbe1pbe em=gd3bj genecp g09default scf=(xqc,maxcycle=64) force  guess=read   nosymm

 Title Card 

0 1
6  -0.00000046  0.81902801  0.00010207
6  -1.28693380  1.35975740  0.00000997
6  -1.24625814  2.75460161  -0.00001080
6  0.00000122  3.39723621  0.00001167
6  1.24626461  2.75460287  0.00003686
6  1.28693416  1.35975541  0.00004938
1  -2.15897128  3.33395911  -0.00003944
1  0.00000081  4.48341187  -0.00000971
1  2.15897535  3.33395780  0.00005089
6  3.69562017  0.58338531  -0.00002868
6  1.92022942  -0.90823786  0.00012469
6  4.18754068  -0.74409490  -0.00009202
6  4.54894449  1.66523594  -0.00005782
6  5.55037887  -0.99987675  -0.00019573
6  5.93100094  1.40651352  -0.00017079
1  4.17401127  2.68295570  0.00000751
6  6.41416018  0.10467323  -0.00024298
1  5.92137290  -2.02023854  -0.00024149
1  6.62062995  2.24346078  -0.00019613
1  7.48349667  -0.07055824  -0.00032893
6  -3.69561881  0.58338842  -0.00004082
6  -1.92021292  -0.90824286  0.00009402
6  -4.18753370  -0.74410572  -0.00006560
6  -4.54894473  1.66522340  -0.00005424
6  -5.55037147  -0.99988242  -0.00009836
6  -5.93099968  1.40651146  -0.00010047
1  -4.17401085  2.68295292  -0.00002409
6  -6.41415839  0.10466145  -0.00012493
1  -5.92136540  -2.02024723  -0.00010214
1  -6.62063384  2.24345274  -0.00010831
1  -7.48349154  -0.07056996  -0.00015418
7  -2.31005205  0.47164358  0.00000875
7  -3.12049264  -1.60455266  -0.00004643
7  2.31005497  0.47164571  0.00007179
7  3.12049802  -1.60454666  -0.00003396
6  3.19953386  -3.03006194  0.00000807
1  3.71555241  -3.40229913  -0.89448859
1  3.71509266  -3.40231032  0.89476892
1  2.18591806  -3.44177847  -0.00027206
6  -3.19952672  -3.03006656  0.00004492
1  -3.71502031  -3.40229876  0.89485246
1  -3.71560687  -3.40232755  -0.89440654
1  -2.18591010  -3.44177927  -0.00030121
27  0.00000774  -1.24986131  0.00013438

-c -h -o -n 0
6-31g(d)
****
-co 0
sdd
****

-co 0
sdd



