%chk=b.chk
%nprocshared=56 
%mem=96gb 
# pbe1pbe em=gd3bj genecp g09default scf=(xqc,maxcycle=64) force  guess=read   nosymm

 Title Card 

0 3
6  0.00000806  0.80022715  0.00011146
6  -1.28101544  1.35944908  0.00002377
6  -1.24603109  2.75677544  -0.00001407
6  -0.00000162  3.40416068  0.00000803
6  1.24604039  2.75677107  0.00003324
6  1.28100537  1.35945675  0.00006226
1  -2.15854727  3.33756028  -0.00004126
1  0.00000155  4.49178044  -0.00000832
1  2.15855226  3.33755870  0.00004794
6  3.69220099  0.58134728  -0.00003005
6  1.91975515  -0.91020252  0.00013672
6  4.18888226  -0.74291737  -0.00009534
6  4.55006977  1.66488221  -0.00005981
6  5.55239870  -1.00001907  -0.00019785
6  5.93253334  1.40454656  -0.00017120
1  4.17848909  2.68279909  0.00000649
6  6.41889971  0.10523707  -0.00024291
1  5.92803551  -2.01839604  -0.00024047
1  6.62292585  2.24278988  -0.00019658
1  7.48970051  -0.06935115  -0.00032846
6  -3.69217746  0.58131994  -0.00004193
6  -1.91974973  -0.91020747  0.00010351
6  -4.18889954  -0.74292355  -0.00006962
6  -4.55008451  1.66489818  -0.00005563
6  -5.55237031  -1.00002664  -0.00010009
6  -5.93252586  1.40453320  -0.00010091
1  -4.17849065  2.68278730  -0.00002428
6  -6.41890482  0.10523527  -0.00012453
1  -5.92802977  -2.01840576  -0.00010148
1  -6.62293025  2.24278340  -0.00010899
1  -7.48969385  -0.06936299  -0.00015394
7  -2.30677169  0.47007878  0.00001274
7  -3.12024312  -1.60463032  -0.00004727
7  2.30677719  0.47007003  0.00007500
7  3.12025967  -1.60462930  -0.00003430
6  3.20182399  -3.02962920  0.00000759
1  3.71876297  -3.40228021  -0.89344557
1  3.71829751  -3.40229333  0.89373025
1  2.18761332  -3.43934440  -0.00027466
6  -3.20181894  -3.02963707  0.00004375
1  -3.71822416  -3.40228020  0.89381287
1  -3.71881833  -3.40230984  -0.89336172
1  -2.18760461  -3.43934645  -0.00030453
27  0.00000551  -1.25477760  0.00009999

-c -h -o -n 0
6-31g(d)
****
-co 0
sdd
****

-co 0
sdd




