%chk=b.chk
%nprocshared=56 
%mem=96gb 
# pbe1pbe em=gd3bj genecp g09default scf=(xqc,maxcycle=64) force  guess=read   nosymm

 Title Card 

0 3
6  0.00000101  0.67165688  0.00006980
6  -1.21643150  1.35211322  0.00003906
6  -1.23055731  2.75037174  -0.00000000
6  -0.00000025  3.41881257  0.00001264
6  1.23056124  2.75037196  0.00005160
6  1.21643355  1.35211437  0.00008430
1  -2.15147088  3.32264896  -0.00004532
1  0.00000102  4.50302294  -0.00001090
1  2.15147266  3.32264994  0.00005080
6  3.65882599  0.57481838  -0.00001933
6  1.88902733  -0.89615362  0.00009337
6  4.16142943  -0.73891454  -0.00010230
6  4.52111190  1.66405905  -0.00005107
6  5.52797110  -1.00293056  -0.00020629
6  5.89486846  1.39938379  -0.00016790
1  4.15903419  2.68389834  0.00001414
6  6.38906324  0.09658696  -0.00024088
1  5.90696459  -2.01805155  -0.00025113
1  6.58916657  2.23483824  -0.00019610
1  7.46239285  -0.07125520  -0.00032191
6  -3.65882107  0.57481323  -0.00003140
6  -1.88902440  -0.89615460  0.00003760
6  -4.16142580  -0.73892325  -0.00006369
6  -4.52111333  1.66405597  -0.00004865
6  -5.52796137  -1.00293711  -0.00010415
6  -5.89486266  1.39937439  -0.00009594
1  -4.15903416  2.68389256  -0.00002097
6  -6.38906335  0.09657793  -0.00012091
1  -5.90695803  -2.01806051  -0.00011119
1  -6.58916675  2.23482954  -0.00010911
1  -7.46238621  -0.07126582  -0.00014990
7  -2.27267117  0.44819112  0.00001086
7  -3.07280715  -1.59161701  -0.00003862
7  2.27267694  0.44819276  0.00009073
7  3.07281535  -1.59161855  -0.00004818
6  3.17251494  -3.02169039  0.00000040
1  3.70363657  -3.37575302  -0.89216139
1  3.70321979  -3.37575070  0.89242068
1  2.16523749  -3.44203279  -0.00023994
6  -3.17250725  -3.02169635  0.00003960
1  -3.70314813  -3.37574360  0.89249855
1  -3.70368638  -3.37576982  -0.89208234
1  -2.16522680  -3.44203491  -0.00026691
27  0.00000374  -1.16484395  0.00013231

-c -h -o -n 0
6-31g(d)
****
-co 0
sdd
****

-co 0
sdd




