%chk=b.chk
%nprocshared=56 
%mem=96gb 
# pbe1pbe em=gd3bj genecp g09default scf=(xqc,maxcycle=64) force  guess=read   nosymm

 Title Card 

0 3
6  0.00000603  0.80291371  0.00008228
6  -1.28706788  1.35649878  0.00003960
6  -1.24728542  2.75405991  -0.00000762
6  -0.00000224  3.39931004  -0.00000370
6  1.24729754  2.75406252  0.00003212
6  1.28706549  1.35649563  0.00007013
1  -2.15382348  3.34608367  -0.00004795
1  0.00000290  4.48573989  -0.00001418
1  2.15382629  3.34608095  0.00003033
6  3.70963174  0.58339160  -0.00004160
6  1.93599291  -0.91391639  0.00014078
6  4.20848024  -0.74179645  -0.00009955
6  4.57146953  1.66264361  -0.00007523
6  5.57647663  -0.99468931  -0.00020076
6  5.95512157  1.40484230  -0.00017975
1  4.20816908  2.68313137  -0.00000553
6  6.44362036  0.10728094  -0.00024757
1  5.96036869  -2.00971076  -0.00022856
1  6.64486631  2.24259756  -0.00019784
1  7.51665500  -0.06285907  -0.00032708
6  -3.70963260  0.58341616  -0.00005285
6  -1.93599199  -0.91391899  0.00011195
6  -4.20850123  -0.74181981  -0.00008237
6  -4.57146911  1.66261006  -0.00006845
6  -5.57645570  -0.99467835  -0.00010929
6  -5.95510801  1.40486119  -0.00010913
1  -4.20816596  2.68313301  -0.00002863
6  -6.44362711  0.10724251  -0.00013023
1  -5.96036404  -2.00972656  -0.00009375
1  -6.64486131  2.24258085  -0.00011111
1  -7.51664563  -0.06286897  -0.00015224
7  -2.31846966  0.46938635  0.00004277
7  -3.14189250  -1.60452902  -0.00003812
7  2.31847808  0.46939392  0.00009260
7  3.14190844  -1.60452495  -0.00001351
6  3.22588447  -3.03205762  0.00001525
1  3.74248804  -3.40861780  -0.89233337
1  3.74195931  -3.40866068  0.89265633
1  2.21066313  -3.43713778  -0.00031620
6  -3.22587908  -3.03206227  0.00004981
1  -3.74188028  -3.40863638  0.89274444
1  -3.74255024  -3.40865409  -0.89224353
1  -2.21065359  -3.43714376  -0.00035255
27  0.00000056  -1.26567018  0.00014350

-c -h -o -n 0
6-31g(d)
****
-co 0
sdd
****

-co 0
sdd




