%chk=a.chk
%nprocshared=56 
%mem=96gb 
# pbe1pbe em=gd3bj genecp g09default scf=(xqc,maxcycle=64) force  guess=read   nosymm

 Title Card 

0 1
6  0.00000448  0.79759225  0.00009837
6  -1.28879870  1.35263152  0.00004212
6  -1.24766088  2.74855531  -0.00000466
6  0.00000007  3.39083628  -0.00000279
6  1.24766818  2.74855787  0.00003123
6  1.28879819  1.35263003  0.00006934
1  -2.15218114  3.34426371  -0.00005052
1  0.00000284  4.47699133  -0.00002227
1  2.15218356  3.34426305  0.00002202
6  3.71517938  0.58458797  -0.00004304
6  1.94058265  -0.91380455  0.00014281
6  4.21475506  -0.74060747  -0.00009835
6  4.57860066  1.66352597  -0.00008187
6  5.58325684  -0.99305909  -0.00020165
6  5.96250467  1.40578438  -0.00018524
1  4.21881945  2.68498409  -0.00001167
6  6.45045591  0.10840931  -0.00025027
1  5.97044670  -2.00724457  -0.00022344
1  6.65242382  2.24337098  -0.00019912
1  7.52390378  -0.06091823  -0.00032549
6  -3.71518457  0.58461313  -0.00005398
6  -1.94058178  -0.91380666  0.00011638
6  -4.21477839  -0.74063000  -0.00008433
6  -4.57859772  1.66349205  -0.00007413
6  -5.58323496  -0.99304756  -0.00011389
6  -5.96249076  1.40580033  -0.00011464
1  -4.21881579  2.68498659  -0.00003106
6  -6.45046153  0.10837163  -0.00013445
1  -5.97044294  -2.00726333  -0.00009180
1  -6.65241784  2.24335524  -0.00011245
1  -7.52389546  -0.06092773  -0.00015073
7  -2.32310229  0.47009365  0.00005687
7  -3.14789175  -1.60475818  -0.00003336
7  2.32311428  0.47010135  0.00010166
7  3.14790853  -1.60475353  -0.00000551
6  3.23518389  -3.03095197  0.00001728
1  3.75282456  -3.40669512  -0.89219322
1  3.75226391  -3.40675355  0.89253496
1  2.22113261  -3.43979090  -0.00033658
6  -3.23517780  -3.03095633  0.00005212
1  -3.75218168  -3.40672491  0.89262649
1  -3.75288944  -3.40673144  -0.89210082
1  -2.22112314  -3.43979688  -0.00037590
27  -0.00000027  -1.25449872  0.00013510

-c -h -o -n 0
6-31g(d)
****
-co 0
sdd
****

-co 0
sdd



