%chk=b.chk
%nprocshared=56 
%mem=96gb 
# pbe1pbe em=gd3bj genecp g09default scf=(xqc,maxcycle=64) force  guess=read   nosymm

 Title Card 

0 3
6  -0.00000243  0.79864253  0.00018415
6  -1.28936858  1.35201479  0.00002338
6  -1.24798662  2.74771304  -0.00001204
6  0.00000648  3.38956615  -0.00000063
6  1.24798074  2.74771049  0.00002295
6  1.28938464  1.35202043  0.00004999
1  -2.15214407  3.34305710  -0.00004901
1  0.00000216  4.47540110  -0.00002524
1  2.15215061  3.34305912  0.00002203
6  3.71684081  0.58491302  -0.00004621
6  1.94174579  -0.91396594  0.00011059
6  4.21630045  -0.74020446  -0.00009297
6  4.58019770  1.66386751  -0.00008327
6  5.58488481  -0.99326440  -0.00020059
6  5.96428649  1.40640473  -0.00018605
1  4.22060191  2.68566273  -0.00001376
6  6.45215091  0.10902135  -0.00025219
1  5.97201776  -2.00698130  -0.00022206
1  6.65433664  2.24388341  -0.00019938
1  7.52518956  -0.06081881  -0.00032562
6  -3.71682223  0.58484816  -0.00005685
6  -1.94174300  -0.91396570  0.00008446
6  -4.21624563  -0.74017698  -0.00007941
6  -4.58019411  1.66391451  -0.00007522
6  -5.58491182  -0.99331340  -0.00011356
6  -5.96430202  1.40634286  -0.00011564
1  -4.22060548  2.68564102  -0.00003224
6  -6.45212741  0.10906197  -0.00013695
1  -5.97200408  -2.00697796  -0.00009138
1  -6.65433616  2.24388112  -0.00011261
1  -7.52519372  -0.06083448  -0.00015097
7  -2.32449701  0.46983835  0.00006344
7  -3.14983740  -1.60488385  -0.00001523
7  2.32448649  0.46983517  0.00010713
7  3.14982525  -1.60488169  0.00001357
6  3.23739193  -3.03093237  0.00002004
1  3.75538881  -3.40616471  -0.89231095
1  3.75481673  -3.40622666  0.89265489
1  2.22384738  -3.44064087  -0.00034518
6  -3.23737778  -3.03093874  0.00005498
1  -3.75473419  -3.40619729  0.89274814
1  -3.75545504  -3.40620088  -0.89221864
1  -2.22384054  -3.44064687  -0.00038517
27  0.00000042  -1.25400598  0.00012880

-c -h -o -n 0
6-31g(d)
****
-co 0
sdd
****

-co 0
sdd




