%chk=a.chk
%nprocshared=56 
%mem=96gb 
# pbe1pbe em=gd3bj genecp g09default scf=(xqc,maxcycle=64) force  guess=read   nosymm

 Title Card 

0 1
6  0.00000573  0.79955408  0.00015980
6  -1.29024851  1.35124223  0.00004638
6  -1.24818925  2.74683818  -0.00001400
6  -0.00000134  3.38817597  -0.00000160
6  1.24819872  2.74684258  0.00002006
6  1.29024300  1.35123871  0.00007235
1  -2.15288558  3.34142747  -0.00005056
1  0.00000264  4.47399309  -0.00002664
1  2.15288629  3.34142698  0.00001875
6  3.71817878  0.58529950  -0.00004066
6  1.94293204  -0.91444859  0.00013629
6  4.21767903  -0.73997614  -0.00009248
6  4.58153711  1.66466407  -0.00008407
6  5.58625412  -0.99290542  -0.00020009
6  5.96593011  1.40707640  -0.00018812
1  4.22188081  2.68646310  -0.00001548
6  6.45324306  0.10944289  -0.00025169
1  5.97298360  -2.00720014  -0.00022094
1  6.65626260  2.24467194  -0.00020076
1  7.52637941  -0.06096140  -0.00032550
6  -3.71819401  0.58536141  -0.00005087
6  -1.94292778  -0.91445148  0.00011042
6  -4.21772840  -0.74001808  -0.00007930
6  -4.58153460  1.66459632  -0.00007566
6  -5.58621592  -0.99287195  -0.00011385
6  -5.96590459  1.40712272  -0.00011804
1  -4.22187416  2.68647575  -0.00003296
6  -6.45325932  0.10937550  -0.00013722
1  -5.97298328  -2.00722681  -0.00009149
1  -6.65625540  2.24465196  -0.00011378
1  -7.52636643  -0.06096819  -0.00015107
7  -2.32541650  0.46972153  0.00005179
7  -3.15122753  -1.60469899  -0.00002715
7  2.32543555  0.46973370  0.00009442
7  3.15125354  -1.60469218  0.00000244
6  3.23987643  -3.03086990  0.00001645
1  3.75815532  -3.40522917  -0.89244710
1  3.75757571  -3.40529762  0.89280000
1  2.22679948  -3.44186666  -0.00034877
6  -3.23987306  -3.03087197  0.00005167
1  -3.75749150  -3.40526827  0.89289340
1  -3.75822192  -3.40526553  -0.89235312
1  -2.22678919  -3.44187178  -0.00038945
27  0.00000034  -1.25435852  0.00010766

-c -h -o -n 0
6-31g(d)
****
-co 0
sdd
****

-co 0
sdd



