%chk=b.chk
%nprocshared=56 
%mem=96gb 
# pbe1pbe em=gd3bj genecp g09default scf=(xqc,maxcycle=64) force  guess=read   nosymm

 Title Card 

0 3
6  -0.00000126  0.75965799  0.00008140
6  -1.29931311  1.34871979  0.00005141
6  -1.25657091  2.74151705  -0.00000728
6  0.00000300  3.37491188  0.00001343
6  1.25656904  2.74151814  0.00004467
6  1.29931964  1.34871889  0.00009129
1  -2.16465427  3.32862126  -0.00004557
1  0.00000055  4.47341199  -0.00001083
1  2.16465684  3.32862292  0.00004826
6  3.67416598  0.58917434  -0.00001773
6  1.89024874  -0.90262699  0.00010292
6  4.16130511  -0.74430590  -0.00008483
6  4.52829041  1.66505405  -0.00005497
6  5.52680976  -1.00185978  -0.00019693
6  5.91764930  1.40008490  -0.00017120
1  4.16186087  2.68327051  0.00001194
6  6.39490587  0.10525596  -0.00024277
1  5.90651441  -2.01991594  -0.00024707
1  6.59985398  2.23862831  -0.00019483
1  7.46603475  -0.07024233  -0.00032598
6  -3.67416624  0.58917606  -0.00003151
6  -1.89023838  -0.90262565  0.00007837
6  -4.16129225  -0.74430753  -0.00006191
6  -4.52828336  1.66504016  -0.00005356
6  -5.52681129  -1.00186803  -0.00009984
6  -5.91765208  1.40007870  -0.00009923
1  -4.16186027  2.68326725  -0.00002226
6  -6.39489465  0.10524553  -0.00012242
1  -5.90650594  -2.01992293  -0.00010736
1  -6.59985193  2.23861763  -0.00010727
1  -7.46603301  -0.07025330  -0.00015234
7  -2.29133888  0.48951442  0.00000765
7  -3.10135893  -1.60397779  -0.00004686
7  2.29133941  0.48951723  0.00007556
7  3.10136291  -1.60396436  -0.00004798
6  3.18434821  -3.01879461  0.00000786
1  3.70496846  -3.38819365  -0.89450365
1  3.70454140  -3.38820682  0.89477082
1  2.17587959  -3.44735306  -0.00025331
6  -3.18433607  -3.01879334  0.00004544
1  -3.70447054  -3.38819511  0.89485186
1  -3.70501911  -3.38821410  -0.89442395
1  -2.17586936  -3.44735499  -0.00028042
27  -0.00000047  -1.20257160  0.00007100

-c -h -o -n 0
6-31g(d)
****
-co 0
sdd
****

-co 0
sdd




