%chk=b.chk
%nprocshared=56 
%mem=96gb 
# pbe1pbe em=gd3bj genecp g09default scf=(xqc,maxcycle=64) stable=opt  nosymm

 Title Card 

0 3
6  0.00000200  0.68001500  0.00008200
6  -1.21641900  1.35695000  0.00003600
6  -1.23154800  2.74852000  -0.00000100
6  0.00000100  3.41606300  0.00001300
6  1.23155000  2.74852100  0.00005100
6  1.21642200  1.35695100  0.00008000
1  -2.15134300  3.32212700  -0.00004500
1  0.00000100  4.50227100  -0.00001100
1  2.15134500  3.32212800  0.00005100
6  3.65787800  0.57586800  -0.00002000
6  1.89076700  -0.89658900  0.00009000
6  4.16297400  -0.73958000  -0.00010200
6  4.52276200  1.66378900  -0.00005100
6  5.52663800  -1.00168100  -0.00020600
6  5.89457700  1.40053100  -0.00016800
1  4.15898900  2.68378300  0.00001400
6  6.38934300  0.09557100  -0.00024100
1  5.90708500  -2.01846500  -0.00025100
1  6.58948200  2.23495900  -0.00019600
1  7.46231700  -0.07110700  -0.00032200
6  -3.65787500  0.57586400  -0.00003100
6  -1.89076100  -0.89659000  0.00003400
6  -4.16296800  -0.73958500  -0.00006400
6  -4.52276000  1.66378300  -0.00004900
6  -5.52663200  -1.00168900  -0.00010400
6  -5.89457500  1.40052300  -0.00009600
1  -4.15898900  2.68377800  -0.00002100
6  -6.38933800  0.09556200  -0.00012100
1  -5.90707800  -2.01847300  -0.00011100
1  -6.58948100  2.23494900  -0.00010900
1  -7.46231300  -0.07111800  -0.00015000
7  -2.28066900  0.44556900  0.00001100
7  -3.07257600  -1.59016100  -0.00003700
7  2.28067200  0.44557000  0.00009200
7  3.07258300  -1.59015700  -0.00004700
6  3.17354600  -3.02305500  0.00000300
1  3.70348700  -3.37619600  -0.89208000
1  3.70306900  -3.37619400  0.89233800
1  2.16568100  -3.44211100  -0.00024100
6  -3.17353600  -3.02305800  0.00004100
1  -3.70299800  -3.37618700  0.89241700
1  -3.70353700  -3.37621300  -0.89200100
1  -2.16567100  -3.44211300  -0.00026800
27  0.00000200  -1.16924600  0.00013100

-c -h -o -n 0
6-31g(d)
****
-co 0
sdd
****

-co 0
sdd




