%chk=b.chk
%nprocshared=56
%mem=96GB
# def2sv nosymm guess=read em=gd3bj force g09default pbe1pbe
scf=(xqc,maxcycle=64)

Title Card

0 3
 C                  0.00000363    0.63056954   -0.06672986
 C                 -1.21196880    1.35334730   -0.01718262
 C                 -1.22004529    2.74428987    0.00040243
 C                  0.00000191    3.43013887   -0.00064632
 C                  1.22004857    2.74428922    0.00051225
 C                  1.21197329    1.35334644   -0.01709555
 H                 -2.15919161    3.29930053    0.01345460
 H                  0.00000228    4.52305274    0.00094447
 H                  2.15919344    3.29929950    0.01367023
 C                  3.65489972    0.58424696    0.00422897
 C                  1.86709354   -0.85499430    0.02546383
 C                  4.14227083   -0.74275487   -0.01099527
 C                  4.53197969    1.66455407    0.00224780
 C                  5.50725087   -1.01369385   -0.00710843
 C                  5.90479826    1.38878360   -0.00144960
 H                  4.17416402    2.69396121    0.00487853
 C                  6.38442117    0.07755822   -0.00079273
 H                  5.88547426   -2.03860639   -0.00528091
 H                  6.61273860    2.22225460   -0.00183557
 H                  7.46337734   -0.10152636    0.00287053
 C                 -3.65489756    0.58424462    0.00415213
 C                 -1.86708885   -0.85499265    0.02538275
 C                 -4.14226703   -0.74275898   -0.01100807
 C                 -4.53198088    1.66454973    0.00219638
 C                 -5.50724582   -1.01370093   -0.00699297
 C                 -5.90479888    1.38877561   -0.00137816
 H                 -4.17416781    2.69395788    0.00476940
 C                 -6.38441858    0.07754902   -0.00063006
 H                 -5.88546703   -2.03861429   -0.00508013
 H                 -6.61274146    2.22224480   -0.00172475
 H                 -7.46337392   -0.10153796    0.00315494
 N                 -2.28018364    0.47048707    0.02185672
 N                 -3.04187018   -1.58010277   -0.01368950
 N                  2.28018621    0.47048678    0.02198463
 N                  3.04187649   -1.58010120   -0.01363692
 C                  3.12914421   -3.00967634   -0.00142860
 H                  3.65447388   -3.38736652   -0.89787239
 H                  3.66527641   -3.37252878    0.89578307
 H                  2.11401650   -3.43336680    0.01250349
 C                 -3.12913110   -3.00967794   -0.00140823
 H                 -3.66515150   -3.37249962    0.89588324
 H                 -3.65456761   -3.38740343   -0.89777364
 H                 -2.11400022   -3.43336385    0.01240939
 Co                 0.00000165   -1.09794145    0.01133254

